 Mo S 
   1.00000000000000 
   -15.8038921082999995  -10.9492554912000006    0.0000000000000000
     1.5803901435999990  -19.1611971095999998    0.0000000000000000
     0.0000000000000000    0.0000000000000000   25.3589382171999986
   Mo   S    
     74   148    
Direct
  0.9099099072459470  0.9909909907027163  0.3663297921006459  
  0.8288288261648660  0.8828828825946079  0.3663297921006459  
  0.9369369342729742  0.6936936934054188  0.3663297921006459  
  0.6396396369756768  0.9639639636756890  0.3663297921006459  
  0.7477477450837849  0.7747747744864998  0.3663297921006459  
  0.8558558531918931  0.5855855852973106  0.3663297921006459  
  0.9639639613000013  0.3963963961081216  0.3663297921006459  
  0.5585585558945957  0.8558558555675809  0.3663297921006459  
  0.6666666640027039  0.6666666663783917  0.3663297921006459  
  0.7747747721108120  0.4774774771892026  0.3663297921006459  
  0.8828828802189201  0.2882882880000133  0.3663297921006459  
  0.9909909883270281  0.0990990988108242  0.3663297921006459  
  0.3693693667054065  0.9369369366486620  0.3663297921006459  
  0.4774774748135147  0.7477477474594728  0.3663297921006459  
  0.5855855829216228  0.5585585582702838  0.3663297921006459  
  0.6936936910297309  0.3693693690810945  0.3663297921006459  
  0.8018017991378390  0.1801801798919054  0.3663297921006459  
  0.2882882856243255  0.8288288285405542  0.3663297921006459  
  0.3963963937324336  0.6396396393513646  0.3663297921006459  
  0.5045045018405417  0.4504504501621757  0.3663297921006459  
  0.6126126099486497  0.2612612609729864  0.3663297921006459  
  0.7207207180567579  0.0720720717837972  0.3663297921006459  
  0.0990990964351363  0.9099099096216350  0.3663297921006459  
  0.2072072045432444  0.7207207204324456  0.3663297921006459  
  0.3153153126513526  0.5315315312432565  0.3663297921006459  
  0.4234234207594607  0.3423423420540675  0.3663297921006459  
  0.5315315288675688  0.1531531528648782  0.3663297921006459  
  0.0180180153540551  0.8018018015135269  0.3663297921006459  
  0.1261261234621633  0.6126126123243378  0.3663297921006459  
  0.2342342315702714  0.4234234231351485  0.3663297921006459  
  0.3423423396783795  0.2342342339459593  0.3663297921006459  
  0.4504504477864875  0.0450450447567702  0.3663297921006459  
  0.0450450423810822  0.5045045042162295  0.3663297921006459  
  0.1531531504891903  0.3153153150270404  0.3663297921006459  
  0.2612612585972984  0.1261261258378513  0.3663297921006459  
  0.0720720694081091  0.2072072069189324  0.3663297921006459  
  0.1801801775162173  0.0180180177297432  0.3663297921006459  
  0.9999999999999999  1.0000000000000002  0.1218400600000000  
  0.8918918918918918  0.9189189189189190  0.1218400600000000  
  0.9729729729729729  0.7297297297297300  0.1218400600000000  
  0.7837837837837837  0.8378378378378382  0.1218400600000000  
  0.8648648648648648  0.6486486486486487  0.1218400600000000  
  0.9459459459459459  0.4594594594594594  0.1218400600000000  
  0.5945945945945945  0.9459459459459462  0.1218400600000000  
  0.6756756756756757  0.7567567567567568  0.1218400600000000  
  0.7567567567567567  0.5675675675675675  0.1218400600000000  
  0.8378378378378379  0.3783783783783785  0.1218400600000000  
  0.9189189189189190  0.1891891891891892  0.1218400600000000  
  0.4864864864864865  0.8648648648648647  0.1218400600000000  
  0.5675675675675677  0.6756756756756757  0.1218400600000000  
  0.6486486486486487  0.4864864864864865  0.1218400600000000  
  0.7297297297297297  0.2972972972972973  0.1218400600000000  
  0.8108108108108107  0.1081081081081080  0.1218400600000000  
  0.2972972972972973  0.9729729729729730  0.1218400600000000  
  0.3783783783783783  0.7837837837837838  0.1218400600000000  
  0.4594594594594595  0.5945945945945946  0.1218400600000000  
  0.5405405405405405  0.4054054054054054  0.1218400600000000  
  0.6216216216216216  0.2162162162162163  0.1218400600000000  
  0.7027027027027026  0.0270270270270269  0.1218400600000000  
  0.1891891891891891  0.8918918918918919  0.1218400600000000  
  0.2702702702702703  0.7027027027027029  0.1218400600000000  
  0.3513513513513513  0.5135135135135136  0.1218400600000000  
  0.4324324324324324  0.3243243243243243  0.1218400600000000  
  0.5135135135135136  0.1351351351351351  0.1218400600000000  
  0.0810810810810811  0.8108108108108109  0.1218400600000000  
  0.1621621621621621  0.6216216216216216  0.1218400600000000  
  0.2432432432432432  0.4324324324324323  0.1218400600000000  
  0.3243243243243243  0.2432432432432433  0.1218400600000000  
  0.4054054054054054  0.0540540540540540  0.1218400600000000  
  0.0540540540540540  0.5405405405405406  0.1218400600000000  
  0.1351351351351351  0.3513513513513514  0.1218400600000000  
  0.2162162162162162  0.1621621621621622  0.1218400600000000  
  0.0270270270270270  0.2702702702702703  0.1218400600000000  
  0.1081081081081081  0.0810810810810811  0.1218400600000000  
  1.0000000000000000  1.0000000000000004  0.4282048654006688  
  0.9189189189189191  0.8918918918918919  0.4282048654006688  
  0.7297297297297298  0.9729729729729729  0.4282048654006688  
  0.8378378378378378  0.7837837837837839  0.4282048654006688  
  0.9459459459459459  0.5945945945945948  0.4282048654006688  
  0.6486486486486486  0.8648648648648648  0.4282048654006688  
  0.7567567567567568  0.6756756756756759  0.4282048654006688  
  0.8648648648648649  0.4864864864864863  0.4282048654006688  
  0.9729729729729729  0.2972972972972973  0.4282048654006688  
  0.4594594594594594  0.9459459459459463  0.4282048654006688  
  0.5675675675675675  0.7567567567567569  0.4282048654006688  
  0.6756756756756757  0.5675675675675674  0.4282048654006688  
  0.7837837837837838  0.3783783783783786  0.4282048654006688  
  0.8918918918918919  0.1891891891891893  0.4282048654006688  
  0.3783783783783783  0.8378378378378378  0.4282048654006688  
  0.4864864864864865  0.6486486486486486  0.4282048654006688  
  0.5945945945945945  0.4594594594594597  0.4282048654006688  
  0.7027027027027026  0.2702702702702704  0.4282048654006688  
  0.8108108108108107  0.0810810810810812  0.4282048654006688  
  0.1891891891891893  0.9189189189189192  0.4282048654006688  
  0.2972972972972974  0.7297297297297296  0.4282048654006688  
  0.4054054054054054  0.5405405405405405  0.4282048654006688  
  0.5135135135135135  0.3513513513513514  0.4282048654006688  
  0.6216216216216217  0.1621621621621622  0.4282048654006688  
  0.1081081081081081  0.8108108108108107  0.4282048654006688  
  0.2162162162162162  0.6216216216216216  0.4282048654006688  
  0.3243243243243243  0.4324324324324324  0.4282048654006688  
  0.4324324324324325  0.2432432432432432  0.4282048654006688  
  0.5405405405405406  0.0540540540540541  0.4282048654006688  
  0.0270270270270270  0.7027027027027027  0.4282048654006688  
  0.1351351351351351  0.5135135135135136  0.4282048654006688  
  0.2432432432432432  0.3243243243243243  0.4282048654006688  
  0.3513513513513513  0.1351351351351352  0.4282048654006688  
  0.0540540540540541  0.4054054054054054  0.4282048654006688  
  0.1621621621621621  0.2162162162162162  0.4282048654006688  
  0.2702702702702703  0.0270270270270270  0.4282048654006688  
  0.0810810810810811  0.1081081081081081  0.4282048654006688  
  1.0000000000000000  1.0000000000000004  0.3044547236115501  
  0.9189189189189191  0.8918918918918919  0.3044547236115501  
  0.7297297297297298  0.9729729729729729  0.3044547236115501  
  0.8378378378378378  0.7837837837837839  0.3044547236115501  
  0.9459459459459459  0.5945945945945948  0.3044547236115501  
  0.6486486486486486  0.8648648648648648  0.3044547236115501  
  0.7567567567567568  0.6756756756756759  0.3044547236115501  
  0.8648648648648649  0.4864864864864863  0.3044547236115501  
  0.9729729729729729  0.2972972972972973  0.3044547236115501  
  0.4594594594594594  0.9459459459459463  0.3044547236115501  
  0.5675675675675675  0.7567567567567569  0.3044547236115501  
  0.6756756756756757  0.5675675675675674  0.3044547236115501  
  0.7837837837837838  0.3783783783783786  0.3044547236115501  
  0.8918918918918919  0.1891891891891893  0.3044547236115501  
  0.3783783783783783  0.8378378378378378  0.3044547236115501  
  0.4864864864864865  0.6486486486486486  0.3044547236115501  
  0.5945945945945945  0.4594594594594597  0.3044547236115501  
  0.7027027027027026  0.2702702702702704  0.3044547236115501  
  0.8108108108108107  0.0810810810810812  0.3044547236115501  
  0.1891891891891893  0.9189189189189192  0.3044547236115501  
  0.2972972972972974  0.7297297297297296  0.3044547236115501  
  0.4054054054054054  0.5405405405405405  0.3044547236115501  
  0.5135135135135135  0.3513513513513514  0.3044547236115501  
  0.6216216216216217  0.1621621621621622  0.3044547236115501  
  0.1081081081081081  0.8108108108108107  0.3044547236115501  
  0.2162162162162162  0.6216216216216216  0.3044547236115501  
  0.3243243243243243  0.4324324324324324  0.3044547236115501  
  0.4324324324324325  0.2432432432432432  0.3044547236115501  
  0.5405405405405406  0.0540540540540541  0.3044547236115501  
  0.0270270270270270  0.7027027027027027  0.3044547236115501  
  0.1351351351351351  0.5135135135135136  0.3044547236115501  
  0.2432432432432432  0.3243243243243243  0.3044547236115501  
  0.3513513513513513  0.1351351351351352  0.3044547236115501  
  0.0540540540540541  0.4054054054054054  0.3044547236115501  
  0.1621621621621621  0.2162162162162162  0.3044547236115501  
  0.2702702702702703  0.0270270270270270  0.3044547236115501  
  0.0810810810810811  0.1081081081081081  0.3044547236115501  
  0.9819819789189189  0.8198198201891892  0.1837151350000000  
  0.7927927897297299  0.9279279282972975  0.1837151350000000  
  0.8738738708108109  0.7387387391081079  0.1837151350000000  
  0.9549549518918921  0.5495495499189190  0.1837151350000000  
  0.6846846816216214  0.8468468472162162  0.1837151350000000  
  0.7657657627027026  0.6576576580270272  0.1837151350000000  
  0.8468468437837838  0.4684684688378379  0.1837151350000000  
  0.9279279248648648  0.2792792796486488  0.1837151350000000  
  0.4954954924324323  0.9549549553243244  0.1837151350000000  
  0.5765765735135135  0.7657657661351353  0.1837151350000000  
  0.6576576545945946  0.5765765769459460  0.1837151350000000  
  0.7387387356756756  0.3873873877567569  0.1837151350000000  
  0.8198198167567567  0.1981981985675675  0.1837151350000000  
  0.9009008978378379  0.0090090093783785  0.1837151350000000  
  0.3873873843243243  0.8738738742432434  0.1837151350000000  
  0.4684684654054054  0.6846846850540541  0.1837151350000000  
  0.5495495464864865  0.4954954958648650  0.1837151350000000  
  0.6306306275675675  0.3063063066756756  0.1837151350000000  
  0.7117117086486486  0.1171171174864865  0.1837151350000000  
  0.1981981951351351  0.9819819823513516  0.1837151350000000  
  0.2792792762162162  0.7927927931621622  0.1837151350000000  
  0.3603603572972972  0.6036036039729731  0.1837151350000000  
  0.4414414383783783  0.4144144147837839  0.1837151350000000  
  0.5225225194594594  0.2252252255945947  0.1837151350000000  
  0.6036036005405405  0.0360360364054054  0.1837151350000000  
  0.0900900870270270  0.9009009012702703  0.1837151350000000  
  0.1711711681081080  0.7117117120810813  0.1837151350000000  
  0.2522522491891891  0.5225225228918918  0.1837151350000000  
  0.3333333302702702  0.3333333337027028  0.1837151350000000  
  0.4144144113513514  0.1441441445135136  0.1837151350000000  
  0.0630630599999999  0.6306306310000001  0.1837151350000000  
  0.1441441410810810  0.4414414418108108  0.1837151350000000  
  0.2252252221621621  0.2522522526216216  0.1837151350000000  
  0.3063063032432431  0.0630630634324324  0.1837151350000000  
  0.0360360329729730  0.3603603607297298  0.1837151350000000  
  0.1171171140540540  0.1711711715405405  0.1837151350000000  
  0.0090090059459459  0.0900900904594595  0.1837151350000000  
  0.9819819789189189  0.8198198201891892  0.0599649880000000  
  0.7927927897297299  0.9279279282972975  0.0599649880000000  
  0.8738738708108109  0.7387387391081079  0.0599649880000000  
  0.9549549518918921  0.5495495499189190  0.0599649880000000  
  0.6846846816216214  0.8468468472162162  0.0599649880000000  
  0.7657657627027026  0.6576576580270272  0.0599649880000000  
  0.8468468437837838  0.4684684688378379  0.0599649880000000  
  0.9279279248648648  0.2792792796486488  0.0599649880000000  
  0.4954954924324323  0.9549549553243244  0.0599649880000000  
  0.5765765735135135  0.7657657661351353  0.0599649880000000  
  0.6576576545945946  0.5765765769459460  0.0599649880000000  
  0.7387387356756756  0.3873873877567569  0.0599649880000000  
  0.8198198167567567  0.1981981985675675  0.0599649880000000  
  0.9009008978378379  0.0090090093783785  0.0599649880000000  
  0.3873873843243243  0.8738738742432434  0.0599649880000000  
  0.4684684654054054  0.6846846850540541  0.0599649880000000  
  0.5495495464864865  0.4954954958648650  0.0599649880000000  
  0.6306306275675675  0.3063063066756756  0.0599649880000000  
  0.7117117086486486  0.1171171174864865  0.0599649880000000  
  0.1981981951351351  0.9819819823513516  0.0599649880000000  
  0.2792792762162162  0.7927927931621622  0.0599649880000000  
  0.3603603572972972  0.6036036039729731  0.0599649880000000  
  0.4414414383783783  0.4144144147837839  0.0599649880000000  
  0.5225225194594594  0.2252252255945947  0.0599649880000000  
  0.6036036005405405  0.0360360364054054  0.0599649880000000  
  0.0900900870270270  0.9009009012702703  0.0599649880000000  
  0.1711711681081080  0.7117117120810813  0.0599649880000000  
  0.2522522491891891  0.5225225228918918  0.0599649880000000  
  0.3333333302702702  0.3333333337027028  0.0599649880000000  
  0.4144144113513514  0.1441441445135136  0.0599649880000000  
  0.0630630599999999  0.6306306310000001  0.0599649880000000  
  0.1441441410810810  0.4414414418108108  0.0599649880000000  
  0.2252252221621621  0.2522522526216216  0.0599649880000000  
  0.3063063032432431  0.0630630634324324  0.0599649880000000  
  0.0360360329729730  0.3603603607297298  0.0599649880000000  
  0.1171171140540540  0.1711711715405405  0.0599649880000000  
  0.0090090059459459  0.0900900904594595  0.0599649880000000  
