 Mo S 
   1.00000000000000 
   -20.5450607743999996    8.2119416184000009    0.0000000000000000
     3.1607795308999993  -21.8985109824000013    0.0000000000000000
     0.0000000000000000    0.0000000000000000   25.3589382171999986
   Mo   S    
     98   196    
Direct
  0.8231292494892996  0.9727891130129190  0.3663297921006459  
  0.9251700658158303  0.9115646232170006  0.3663297921006459  
  0.4557823107137895  0.9931972762782253  0.3663297921006459  
  0.5578231270403201  0.9319727864823069  0.3663297921006459  
  0.6598639433668506  0.8707482966863884  0.3663297921006459  
  0.7619047596933813  0.8095238068904701  0.3663297921006459  
  0.8639455760199117  0.7482993170945517  0.3663297921006459  
  0.9659863923464425  0.6870748272986332  0.3663297921006459  
  0.1904761882648098  0.9523809497476128  0.3663297921006459  
  0.2925170045913405  0.8911564599516947  0.3663297921006459  
  0.3945578209178711  0.8299319701557760  0.3663297921006459  
  0.4965986372444017  0.7687074803598578  0.3663297921006459  
  0.5986394535709323  0.7074829905639394  0.3663297921006459  
  0.7006802698974628  0.6462585007680210  0.3663297921006459  
  0.8027210862239936  0.5850340109721027  0.3663297921006459  
  0.9047619025505241  0.5238095211761843  0.3663297921006459  
  0.0272108821423609  0.8503401334210823  0.3663297921006459  
  0.1292516984688916  0.7891156436251642  0.3663297921006459  
  0.2312925147954221  0.7278911538292456  0.3663297921006459  
  0.3333333311219527  0.6666666640333272  0.3663297921006459  
  0.4353741474484833  0.6054421742374089  0.3663297921006459  
  0.5374149637750139  0.5442176844414904  0.3663297921006459  
  0.6394557801015445  0.4829931946455721  0.3663297921006459  
  0.7414965964280752  0.4217687048496537  0.3663297921006459  
  0.8435374127546058  0.3605442150537354  0.3663297921006459  
  0.9455782290811362  0.2993197252578169  0.3663297921006459  
  0.0680272086729731  0.6258503375027149  0.3663297921006459  
  0.1700680249995036  0.5646258477067966  0.3663297921006459  
  0.2721088413260342  0.5034013579108783  0.3663297921006459  
  0.3741496576525648  0.4421768681149598  0.3663297921006459  
  0.4761904739790954  0.3809523783190414  0.3663297921006459  
  0.5782312903056260  0.3197278885231229  0.3663297921006459  
  0.6802721066321566  0.2585033987272046  0.3663297921006459  
  0.7823129229586873  0.1972789089312863  0.3663297921006459  
  0.8843537392852179  0.1360544191353679  0.3663297921006459  
  0.9863945556117484  0.0748299293394495  0.3663297921006459  
  0.0068027188770547  0.4625850313802659  0.3663297921006459  
  0.1088435352035853  0.4013605415843476  0.3663297921006459  
  0.2108843515301159  0.3401360517884292  0.3663297921006459  
  0.3129251678566465  0.2789115619925107  0.3663297921006459  
  0.4149659841831771  0.2176870721965924  0.3663297921006459  
  0.5170068005097077  0.1564625824006740  0.3663297921006459  
  0.6190476168362382  0.0952380926047557  0.3663297921006459  
  0.7210884331627689  0.0340136028088372  0.3663297921006459  
  0.0476190454076669  0.2380952354618985  0.3663297921006459  
  0.1496598617341975  0.1768707456659802  0.3663297921006459  
  0.2517006780607281  0.1156462558700618  0.3663297921006459  
  0.3537414943872587  0.0544217660741434  0.3663297921006459  
  0.0884353719382792  0.0136054395435312  0.3663297921006459  
  1.0000000000000000  1.0000000000000000  0.1218400600000000  
  0.8367346938775511  0.9387755102040817  0.1218400600000000  
  0.8979591836734693  0.8367346938775511  0.1218400600000000  
  0.9591836734693877  0.7346938775510204  0.1218400600000000  
  0.6122448979591837  0.9795918367346940  0.1218400600000000  
  0.6734693877551020  0.8775510204081635  0.1218400600000000  
  0.7346938775510203  0.7755102040816327  0.1218400600000000  
  0.7959183673469388  0.6734693877551021  0.1218400600000000  
  0.8571428571428571  0.5714285714285714  0.1218400600000000  
  0.9183673469387755  0.4693877551020408  0.1218400600000000  
  0.9795918367346942  0.3673469387755103  0.1218400600000000  
  0.4489795918367347  0.9183673469387756  0.1218400600000000  
  0.5102040816326530  0.8163265306122448  0.1218400600000000  
  0.5714285714285714  0.7142857142857143  0.1218400600000000  
  0.6326530612244897  0.6122448979591837  0.1218400600000000  
  0.6938775510204082  0.5102040816326531  0.1218400600000000  
  0.7551020408163264  0.4081632653061224  0.1218400600000000  
  0.8163265306122448  0.3061224489795918  0.1218400600000000  
  0.8775510204081632  0.2040816326530612  0.1218400600000000  
  0.9387755102040816  0.1020408163265305  0.1218400600000000  
  0.2244897959183673  0.9591836734693877  0.1218400600000000  
  0.2857142857142858  0.8571428571428573  0.1218400600000000  
  0.3469387755102040  0.7551020408163265  0.1218400600000000  
  0.4081632653061224  0.6530612244897959  0.1218400600000000  
  0.4693877551020408  0.5510204081632653  0.1218400600000000  
  0.5306122448979592  0.4489795918367347  0.1218400600000000  
  0.5918367346938775  0.3469387755102040  0.1218400600000000  
  0.6530612244897959  0.2448979591836735  0.1218400600000000  
  0.7142857142857143  0.1428571428571428  0.1218400600000000  
  0.7755102040816325  0.0408163265306122  0.1218400600000000  
  0.0612244897959184  0.8979591836734694  0.1218400600000000  
  0.1224489795918368  0.7959183673469391  0.1218400600000000  
  0.1836734693877551  0.6938775510204082  0.1218400600000000  
  0.2448979591836735  0.5918367346938775  0.1218400600000000  
  0.3061224489795918  0.4897959183673470  0.1218400600000000  
  0.3673469387755102  0.3877551020408164  0.1218400600000000  
  0.4285714285714285  0.2857142857142857  0.1218400600000000  
  0.4897959183673471  0.1836734693877551  0.1218400600000000  
  0.5510204081632654  0.0816326530612244  0.1218400600000000  
  0.0204081632653061  0.6326530612244897  0.1218400600000000  
  0.0816326530612245  0.5306122448979592  0.1218400600000000  
  0.1428571428571429  0.4285714285714287  0.1218400600000000  
  0.2040816326530612  0.3265306122448979  0.1218400600000000  
  0.2653061224489796  0.2244897959183673  0.1218400600000000  
  0.3265306122448979  0.1224489795918368  0.1218400600000000  
  0.3877551020408163  0.0204081632653061  0.1218400600000000  
  0.0408163265306122  0.2653061224489796  0.1218400600000000  
  0.1020408163265306  0.1632653061224490  0.1218400600000000  
  0.1632653061224490  0.0612244897959184  0.1218400600000000  
  0.9999999999999998  1.0000000000000000  0.4282048654006688  
  0.7346938775510203  0.9591836734693878  0.4282048654006688  
  0.8367346938775510  0.8979591836734694  0.4282048654006688  
  0.9387755102040817  0.8367346938775511  0.4282048654006688  
  0.3673469387755102  0.9795918367346939  0.4282048654006688  
  0.4693877551020408  0.9183673469387756  0.4282048654006688  
  0.5714285714285714  0.8571428571428572  0.4282048654006688  
  0.6734693877551021  0.7959183673469391  0.4282048654006688  
  0.7755102040816327  0.7346938775510206  0.4282048654006688  
  0.8775510204081631  0.6734693877551020  0.4282048654006688  
  0.9795918367346939  0.6122448979591837  0.4282048654006688  
  0.1020408163265306  0.9387755102040817  0.4282048654006688  
  0.2040816326530611  0.8775510204081631  0.4282048654006688  
  0.3061224489795918  0.8163265306122448  0.4282048654006688  
  0.4081632653061224  0.7551020408163267  0.4282048654006688  
  0.5102040816326529  0.6938775510204080  0.4282048654006688  
  0.6122448979591837  0.6326530612244898  0.4282048654006688  
  0.7142857142857143  0.5714285714285713  0.4282048654006688  
  0.8163265306122448  0.5102040816326531  0.4282048654006688  
  0.9183673469387754  0.4489795918367347  0.4282048654006688  
  0.0408163265306122  0.7755102040816327  0.4282048654006688  
  0.1428571428571429  0.7142857142857143  0.4282048654006688  
  0.2448979591836735  0.6530612244897960  0.4282048654006688  
  0.3469387755102040  0.5918367346938775  0.4282048654006688  
  0.4489795918367346  0.5306122448979591  0.4282048654006688  
  0.5510204081632653  0.4693877551020408  0.4282048654006688  
  0.6530612244897959  0.4081632653061224  0.4282048654006688  
  0.7551020408163265  0.3469387755102040  0.4282048654006688  
  0.8571428571428571  0.2857142857142856  0.4282048654006688  
  0.9591836734693878  0.2244897959183673  0.4282048654006688  
  0.0816326530612245  0.5510204081632654  0.4282048654006688  
  0.1836734693877551  0.4897959183673469  0.4282048654006688  
  0.2857142857142857  0.4285714285714286  0.4282048654006688  
  0.3877551020408164  0.3673469387755103  0.4282048654006688  
  0.4897959183673469  0.3061224489795918  0.4282048654006688  
  0.5918367346938775  0.2448979591836734  0.4282048654006688  
  0.6938775510204080  0.1836734693877551  0.4282048654006688  
  0.7959183673469387  0.1224489795918367  0.4282048654006688  
  0.8979591836734693  0.0612244897959183  0.4282048654006688  
  0.0204081632653061  0.3877551020408164  0.4282048654006688  
  0.1224489795918367  0.3265306122448980  0.4282048654006688  
  0.2244897959183673  0.2653061224489796  0.4282048654006688  
  0.3265306122448979  0.2040816326530612  0.4282048654006688  
  0.4285714285714285  0.1428571428571428  0.4282048654006688  
  0.5306122448979591  0.0816326530612245  0.4282048654006688  
  0.6326530612244898  0.0204081632653061  0.4282048654006688  
  0.0612244897959184  0.1632653061224490  0.4282048654006688  
  0.1632653061224490  0.1020408163265306  0.4282048654006688  
  0.2653061224489796  0.0408163265306122  0.4282048654006688  
  0.9999999999999998  1.0000000000000000  0.3044547236115501  
  0.7346938775510203  0.9591836734693878  0.3044547236115501  
  0.8367346938775510  0.8979591836734694  0.3044547236115501  
  0.9387755102040817  0.8367346938775511  0.3044547236115501  
  0.3673469387755102  0.9795918367346939  0.3044547236115501  
  0.4693877551020408  0.9183673469387756  0.3044547236115501  
  0.5714285714285714  0.8571428571428572  0.3044547236115501  
  0.6734693877551021  0.7959183673469391  0.3044547236115501  
  0.7755102040816327  0.7346938775510206  0.3044547236115501  
  0.8775510204081631  0.6734693877551020  0.3044547236115501  
  0.9795918367346939  0.6122448979591837  0.3044547236115501  
  0.1020408163265306  0.9387755102040817  0.3044547236115501  
  0.2040816326530611  0.8775510204081631  0.3044547236115501  
  0.3061224489795918  0.8163265306122448  0.3044547236115501  
  0.4081632653061224  0.7551020408163267  0.3044547236115501  
  0.5102040816326529  0.6938775510204080  0.3044547236115501  
  0.6122448979591837  0.6326530612244898  0.3044547236115501  
  0.7142857142857143  0.5714285714285713  0.3044547236115501  
  0.8163265306122448  0.5102040816326531  0.3044547236115501  
  0.9183673469387754  0.4489795918367347  0.3044547236115501  
  0.0408163265306122  0.7755102040816327  0.3044547236115501  
  0.1428571428571429  0.7142857142857143  0.3044547236115501  
  0.2448979591836735  0.6530612244897960  0.3044547236115501  
  0.3469387755102040  0.5918367346938775  0.3044547236115501  
  0.4489795918367346  0.5306122448979591  0.3044547236115501  
  0.5510204081632653  0.4693877551020408  0.3044547236115501  
  0.6530612244897959  0.4081632653061224  0.3044547236115501  
  0.7551020408163265  0.3469387755102040  0.3044547236115501  
  0.8571428571428571  0.2857142857142856  0.3044547236115501  
  0.9591836734693878  0.2244897959183673  0.3044547236115501  
  0.0816326530612245  0.5510204081632654  0.3044547236115501  
  0.1836734693877551  0.4897959183673469  0.3044547236115501  
  0.2857142857142857  0.4285714285714286  0.3044547236115501  
  0.3877551020408164  0.3673469387755103  0.3044547236115501  
  0.4897959183673469  0.3061224489795918  0.3044547236115501  
  0.5918367346938775  0.2448979591836734  0.3044547236115501  
  0.6938775510204080  0.1836734693877551  0.3044547236115501  
  0.7959183673469387  0.1224489795918367  0.3044547236115501  
  0.8979591836734693  0.0612244897959183  0.3044547236115501  
  0.0204081632653061  0.3877551020408164  0.3044547236115501  
  0.1224489795918367  0.3265306122448980  0.3044547236115501  
  0.2244897959183673  0.2653061224489796  0.3044547236115501  
  0.3265306122448979  0.2040816326530612  0.3044547236115501  
  0.4285714285714285  0.1428571428571428  0.3044547236115501  
  0.5306122448979591  0.0816326530612245  0.3044547236115501  
  0.6326530612244898  0.0204081632653061  0.3044547236115501  
  0.0612244897959184  0.1632653061224490  0.3044547236115501  
  0.1632653061224490  0.1020408163265306  0.3044547236115501  
  0.2653061224489796  0.0408163265306122  0.3044547236115501  
  0.9115646231224488  0.9251700657959184  0.1837151350000000  
  0.9727891129183671  0.8231292494693878  0.1837151350000000  
  0.6870748272040815  0.9659863923265306  0.1837151350000000  
  0.7482993170000000  0.8639455760000001  0.1837151350000000  
  0.8095238067959183  0.7619047596734695  0.1837151350000000  
  0.8707482965918367  0.6598639433469389  0.1837151350000000  
  0.9319727863877550  0.5578231270204081  0.1837151350000000  
  0.9931972761836735  0.4557823106938776  0.1837151350000000  
  0.5238095210816326  0.9047619025306123  0.1837151350000000  
  0.5850340108775510  0.8027210862040819  0.1837151350000000  
  0.6462585006734693  0.7006802698775513  0.1837151350000000  
  0.7074829904693878  0.5986394535510206  0.1837151350000000  
  0.7687074802653061  0.4965986372244899  0.1837151350000000  
  0.8299319700612245  0.3945578208979592  0.1837151350000000  
  0.8911564598571428  0.2925170045714286  0.1837151350000000  
  0.9523809496530613  0.1904761882448980  0.1837151350000000  
  0.2993197251632653  0.9455782290612246  0.1837151350000000  
  0.3605442149591835  0.8435374127346940  0.1837151350000000  
  0.4217687047551020  0.7414965964081635  0.1837151350000000  
  0.4829931945510203  0.6394557800816328  0.1837151350000000  
  0.5442176843469387  0.5374149637551020  0.1837151350000000  
  0.6054421741428571  0.4353741474285714  0.1837151350000000  
  0.6666666639387754  0.3333333311020408  0.1837151350000000  
  0.7278911537346938  0.2312925147755101  0.1837151350000000  
  0.7891156435306123  0.1292516984489796  0.1837151350000000  
  0.8503401333265306  0.0272108821224488  0.1837151350000000  
  0.0748299292448979  0.9863945555918369  0.1837151350000000  
  0.1360544190408163  0.8843537392653062  0.1837151350000000  
  0.1972789088367346  0.7823129229387756  0.1837151350000000  
  0.2585033986326530  0.6802721066122449  0.1837151350000000  
  0.3197278884285714  0.5782312902857143  0.1837151350000000  
  0.3809523782244898  0.4761904739591838  0.1837151350000000  
  0.4421768680204082  0.3741496576326531  0.1837151350000000  
  0.5034013578163264  0.2721088413061225  0.1837151350000000  
  0.5646258476122448  0.1700680249795918  0.1837151350000000  
  0.6258503374081633  0.0680272086530612  0.1837151350000000  
  0.0340136027142857  0.7210884331428574  0.1837151350000000  
  0.0952380925102040  0.6190476168163267  0.1837151350000000  
  0.1564625823061224  0.5170068004897960  0.1837151350000000  
  0.2176870721020408  0.4149659841632655  0.1837151350000000  
  0.2789115618979591  0.3129251678367347  0.1837151350000000  
  0.3401360516938775  0.2108843515102041  0.1837151350000000  
  0.4013605414897958  0.1088435351836734  0.1837151350000000  
  0.4625850312857143  0.0068027188571429  0.1837151350000000  
  0.0544217659795918  0.3537414943673470  0.1837151350000000  
  0.1156462557755102  0.2517006780408164  0.1837151350000000  
  0.1768707455714286  0.1496598617142857  0.1837151350000000  
  0.2380952353673469  0.0476190453877551  0.1837151350000000  
  0.0136054394489796  0.0884353719183674  0.1837151350000000  
  0.9115646231224488  0.9251700657959184  0.0599649880000000  
  0.9727891129183671  0.8231292494693878  0.0599649880000000  
  0.6870748272040815  0.9659863923265306  0.0599649880000000  
  0.7482993170000000  0.8639455760000001  0.0599649880000000  
  0.8095238067959183  0.7619047596734695  0.0599649880000000  
  0.8707482965918367  0.6598639433469389  0.0599649880000000  
  0.9319727863877550  0.5578231270204081  0.0599649880000000  
  0.9931972761836735  0.4557823106938776  0.0599649880000000  
  0.5238095210816326  0.9047619025306123  0.0599649880000000  
  0.5850340108775510  0.8027210862040819  0.0599649880000000  
  0.6462585006734693  0.7006802698775513  0.0599649880000000  
  0.7074829904693878  0.5986394535510206  0.0599649880000000  
  0.7687074802653061  0.4965986372244899  0.0599649880000000  
  0.8299319700612245  0.3945578208979592  0.0599649880000000  
  0.8911564598571428  0.2925170045714286  0.0599649880000000  
  0.9523809496530613  0.1904761882448980  0.0599649880000000  
  0.2993197251632653  0.9455782290612246  0.0599649880000000  
  0.3605442149591835  0.8435374127346940  0.0599649880000000  
  0.4217687047551020  0.7414965964081635  0.0599649880000000  
  0.4829931945510203  0.6394557800816328  0.0599649880000000  
  0.5442176843469387  0.5374149637551020  0.0599649880000000  
  0.6054421741428571  0.4353741474285714  0.0599649880000000  
  0.6666666639387754  0.3333333311020408  0.0599649880000000  
  0.7278911537346938  0.2312925147755101  0.0599649880000000  
  0.7891156435306123  0.1292516984489796  0.0599649880000000  
  0.8503401333265306  0.0272108821224488  0.0599649880000000  
  0.0748299292448979  0.9863945555918369  0.0599649880000000  
  0.1360544190408163  0.8843537392653062  0.0599649880000000  
  0.1972789088367346  0.7823129229387756  0.0599649880000000  
  0.2585033986326530  0.6802721066122449  0.0599649880000000  
  0.3197278884285714  0.5782312902857143  0.0599649880000000  
  0.3809523782244898  0.4761904739591838  0.0599649880000000  
  0.4421768680204082  0.3741496576326531  0.0599649880000000  
  0.5034013578163264  0.2721088413061225  0.0599649880000000  
  0.5646258476122448  0.1700680249795918  0.0599649880000000  
  0.6258503374081633  0.0680272086530612  0.0599649880000000  
  0.0340136027142857  0.7210884331428574  0.0599649880000000  
  0.0952380925102040  0.6190476168163267  0.0599649880000000  
  0.1564625823061224  0.5170068004897960  0.0599649880000000  
  0.2176870721020408  0.4149659841632655  0.0599649880000000  
  0.2789115618979591  0.3129251678367347  0.0599649880000000  
  0.3401360516938775  0.2108843515102041  0.0599649880000000  
  0.4013605414897958  0.1088435351836734  0.0599649880000000  
  0.4625850312857143  0.0068027188571429  0.0599649880000000  
  0.0544217659795918  0.3537414943673470  0.0599649880000000  
  0.1156462557755102  0.2517006780408164  0.0599649880000000  
  0.1768707455714286  0.1496598617142857  0.0599649880000000  
  0.2380952353673469  0.0476190453877551  0.0599649880000000  
  0.0136054394489796  0.0884353719183674  0.0599649880000000  
