 Mo S 
   1.00000000000000 
    -7.9019464322999990    2.7373138728000002    0.0000000000000000
     1.5803896393999994   -8.2119416184000009    0.0000000000000000
     0.0000000000000000    0.0000000000000000   25.3589382171999986
   Mo   S    
     14   28    
Direct
  0.9047618976745486  0.5238095181833959  0.3663297921006459  
  0.7619047548174057  0.8095238038976819  0.3663297921006459  
  0.6190476119602628  0.0952380896119675  0.3663297921006459  
  0.4761904691031200  0.3809523753262533  0.3663297921006459  
  0.3333333262459772  0.6666666610405391  0.3663297921006459  
  0.1904761833888344  0.9523809467548249  0.3663297921006459  
  0.0476190405316915  0.2380952324691105  0.3663297921006459  
  1.0000000000000000  1.0000000000000000  0.1218400600000000  
  0.8571428571428572  0.5714285714285715  0.1218400600000000  
  0.5714285714285715  0.7142857142857144  0.1218400600000000  
  0.2857142857142858  0.8571428571428573  0.1218400600000000  
  0.7142857142857142  0.1428571428571428  0.1218400600000000  
  0.4285714285714286  0.2857142857142858  0.1218400600000000  
  0.1428571428571429  0.4285714285714287  0.1218400600000000  
  1.0000000000000000  1.0000000000000002  0.4282048654006688  
  0.8571428571428571  0.2857142857142858  0.4282048654006688  
  0.7142857142857143  0.5714285714285716  0.4282048654006688  
  0.5714285714285713  0.8571428571428570  0.4282048654006688  
  0.4285714285714285  0.1428571428571429  0.4282048654006688  
  0.2857142857142856  0.4285714285714285  0.4282048654006688  
  0.1428571428571428  0.7142857142857144  0.4282048654006688  
  1.0000000000000000  1.0000000000000002  0.3044547236115501  
  0.8571428571428571  0.2857142857142858  0.3044547236115501  
  0.7142857142857143  0.5714285714285716  0.3044547236115501  
  0.5714285714285713  0.8571428571428570  0.3044547236115501  
  0.4285714285714285  0.1428571428571429  0.3044547236115501  
  0.2857142857142856  0.4285714285714285  0.3044547236115501  
  0.1428571428571428  0.7142857142857144  0.3044547236115501  
  0.8095238038571427  0.7619047545714284  0.1837151350000000  
  0.5238095181428571  0.9047618974285716  0.1837151350000000  
  0.9523809467142856  0.1904761831428571  0.1837151350000000  
  0.6666666609999999  0.3333333260000000  0.1837151350000000  
  0.3809523752857142  0.4761904688571428  0.1837151350000000  
  0.0952380895714286  0.6190476117142857  0.1837151350000000  
  0.2380952324285714  0.0476190402857143  0.1837151350000000  
  0.8095238038571427  0.7619047545714284  0.0599649880000000  
  0.5238095181428571  0.9047618974285716  0.0599649880000000  
  0.9523809467142856  0.1904761831428571  0.0599649880000000  
  0.6666666609999999  0.3333333260000000  0.0599649880000000  
  0.3809523752857142  0.4761904688571428  0.0599649880000000  
  0.0952380895714286  0.6190476117142857  0.0599649880000000  
  0.2380952324285714  0.0476190402857143  0.0599649880000000  
