 Mo S 
   1.00000000000000 
    -3.1607780183000003  -10.9492554912000006    0.0000000000000000
     7.9019466843999986   -8.2119416184000009    0.0000000000000000
     0.0000000000000000    0.0000000000000000   25.3589382171999986
   Mo   S    
     26   52    
Direct
  0.8974358921133172  0.7435897450792254  0.3663297921006459  
  0.9743589690363940  0.4358974373869178  0.3663297921006459  
  0.5897435844210092  0.9743589758484562  0.3663297921006459  
  0.6666666613440861  0.6666666681561486  0.3663297921006459  
  0.7435897382671631  0.3589743604638410  0.3663297921006459  
  0.8205128151902401  0.0512820527715333  0.3663297921006459  
  0.3589743536517784  0.8974358989253796  0.3663297921006459  
  0.4358974305748555  0.5897435912330719  0.3663297921006459  
  0.5128205074979324  0.2820512835407641  0.3663297921006459  
  0.1282051228825477  0.8205128220023027  0.3663297921006459  
  0.2051281998056247  0.5128205143099950  0.3663297921006459  
  0.2820512767287016  0.2051282066176872  0.3663297921006459  
  0.0512820459594708  0.1282051296946103  0.3663297921006459  
  1.0000000000000000  0.0000000000000000  0.1218400600000000  
  0.9230769230769230  0.7692307692307694  0.1218400600000000  
  0.8461538461538461  0.5384615384615385  0.1218400600000000  
  0.7692307692307693  0.3076923076923078  0.1218400600000000  
  0.6923076923076924  0.0769230769230769  0.1218400600000000  
  0.6153846153846151  0.8461538461538464  0.1218400600000000  
  0.5384615384615383  0.6153846153846155  0.1218400600000000  
  0.4615384615384615  0.3846153846153847  0.1218400600000000  
  0.3846153846153846  0.1538461538461539  0.1218400600000000  
  0.3076923076923076  0.9230769230769231  0.1218400600000000  
  0.2307692307692308  0.6923076923076923  0.1218400600000000  
  0.1538461538461538  0.4615384615384616  0.1218400600000000  
  0.0769230769230769  0.2307692307692308  0.1218400600000000  
  1.0000000000000000  1.0000000000000000  0.4282048654006688  
  0.7692307692307694  0.9230769230769231  0.4282048654006688  
  0.8461538461538460  0.6153846153846153  0.4282048654006688  
  0.9230769230769230  0.3076923076923076  0.4282048654006688  
  0.5384615384615387  0.8461538461538459  0.4282048654006688  
  0.6153846153846153  0.5384615384615384  0.4282048654006688  
  0.6923076923076922  0.2307692307692309  0.4282048654006688  
  0.3076923076923077  0.7692307692307692  0.4282048654006688  
  0.3846153846153847  0.4615384615384616  0.4282048654006688  
  0.4615384615384615  0.1538461538461538  0.4282048654006688  
  0.0769230769230768  0.6923076923076924  0.4282048654006688  
  0.1538461538461538  0.3846153846153846  0.4282048654006688  
  0.2307692307692308  0.0769230769230769  0.4282048654006688  
  1.0000000000000000  1.0000000000000000  0.3044547236115501  
  0.7692307692307694  0.9230769230769231  0.3044547236115501  
  0.8461538461538460  0.6153846153846153  0.3044547236115501  
  0.9230769230769230  0.3076923076923076  0.3044547236115501  
  0.5384615384615387  0.8461538461538459  0.3044547236115501  
  0.6153846153846153  0.5384615384615384  0.3044547236115501  
  0.6923076923076922  0.2307692307692309  0.3044547236115501  
  0.3076923076923077  0.7692307692307692  0.3044547236115501  
  0.3846153846153847  0.4615384615384616  0.3044547236115501  
  0.4615384615384615  0.1538461538461538  0.3044547236115501  
  0.0769230769230768  0.6923076923076924  0.3044547236115501  
  0.1538461538461538  0.3846153846153846  0.3044547236115501  
  0.2307692307692308  0.0769230769230769  0.3044547236115501  
  0.9743589689230767  0.5897435937692310  0.1837151350000000  
  0.8974358919999998  0.3589743630000002  0.1837151350000000  
  0.8205128150769230  0.1282051322307694  0.1837151350000000  
  0.7435897381538460  0.8974359014615388  0.1837151350000000  
  0.6666666612307691  0.6666666706923078  0.1837151350000000  
  0.5897435843076922  0.4358974399230770  0.1837151350000000  
  0.5128205073846154  0.2051282091538462  0.1837151350000000  
  0.4358974304615382  0.9743589783846156  0.1837151350000000  
  0.3589743535384613  0.7435897476153850  0.1837151350000000  
  0.2820512766153844  0.5128205168461540  0.1837151350000000  
  0.2051281996923076  0.2820512860769231  0.1837151350000000  
  0.1282051227692307  0.0512820553076923  0.1837151350000000  
  0.0512820458461538  0.8205128245384616  0.1837151350000000  
  0.9743589689230767  0.5897435937692310  0.0599649880000000  
  0.8974358919999998  0.3589743630000002  0.0599649880000000  
  0.8205128150769230  0.1282051322307694  0.0599649880000000  
  0.7435897381538460  0.8974359014615388  0.0599649880000000  
  0.6666666612307691  0.6666666706923078  0.0599649880000000  
  0.5897435843076922  0.4358974399230770  0.0599649880000000  
  0.5128205073846154  0.2051282091538462  0.0599649880000000  
  0.4358974304615382  0.9743589783846156  0.0599649880000000  
  0.3589743535384613  0.7435897476153850  0.0599649880000000  
  0.2820512766153844  0.5128205168461540  0.0599649880000000  
  0.2051281996923076  0.2820512860769231  0.0599649880000000  
  0.1282051227692307  0.0512820553076923  0.0599649880000000  
  0.0512820458461538  0.8205128245384616  0.0599649880000000  
