 Mo S 
   1.00000000000000 
   -17.3842822518999967    8.2119416184000009    0.0000000000000000
    20.5450615307000000  -24.6358248552000028    0.0000000000000000
     0.0000000000000000    0.0000000000000000   25.3589382171999986
   Mo   S    
     60   120    
Direct
  0.7777777711774978  0.9777777741366844  0.3663297921006459  
  0.7777777711774978  0.8777777741366845  0.3663297921006459  
  0.7777777711774978  0.7777777741366845  0.3663297921006459  
  0.7777777711774980  0.6777777741366846  0.3663297921006459  
  0.7777777711774977  0.5777777741366843  0.3663297921006459  
  0.7777777711774978  0.4777777741366845  0.3663297921006459  
  0.7777777711774977  0.3777777741366845  0.3663297921006459  
  0.7777777711774978  0.2777777741366845  0.3663297921006459  
  0.7777777711774978  0.1777777741366845  0.3663297921006459  
  0.7777777711774981  0.0777777741366847  0.3663297921006459  
  0.4444444378441647  0.9444444408033512  0.3663297921006459  
  0.4444444378441641  0.8444444408033509  0.3663297921006459  
  0.4444444378441646  0.7444444408033511  0.3663297921006459  
  0.4444444378441645  0.6444444408033511  0.3663297921006459  
  0.4444444378441644  0.5444444408033511  0.3663297921006459  
  0.4444444378441645  0.4444444408033511  0.3663297921006459  
  0.4444444378441644  0.3444444408033511  0.3663297921006459  
  0.4444444378441645  0.2444444408033511  0.3663297921006459  
  0.4444444378441644  0.1444444408033511  0.3663297921006459  
  0.4444444378441645  0.0444444408033512  0.3663297921006459  
  0.1111111045108312  0.9111111074700179  0.3663297921006459  
  0.1111111045108312  0.8111111074700178  0.3663297921006459  
  0.1111111045108312  0.7111111074700178  0.3663297921006459  
  0.1111111045108313  0.6111111074700178  0.3663297921006459  
  0.1111111045108313  0.5111111074700179  0.3663297921006459  
  0.1111111045108311  0.4111111074700177  0.3663297921006459  
  0.1111111045108311  0.3111111074700177  0.3663297921006459  
  0.1111111045108311  0.2111111074700178  0.3663297921006459  
  0.1111111045108312  0.1111111074700178  0.3663297921006459  
  0.1111111045108312  0.0111111074700179  0.3663297921006459  
  1.0000000000000000 -0.0000000000000000  0.1218400600000000  
  0.9666666666666671  0.4333333333333335  0.1218400600000000  
  0.9000000000000002  0.3000000000000001  0.1218400600000000  
  0.8333333333333336  0.1666666666666668  0.1218400600000000  
  0.7666666666666668  0.0333333333333335  0.1218400600000000  
  0.9333333333333336  0.8666666666666668  0.1218400600000000  
  0.8666666666666671  0.7333333333333335  0.1218400600000000  
  0.8000000000000005  0.6000000000000002  0.1218400600000000  
  0.7333333333333335  0.4666666666666667  0.1218400600000000  
  0.6666666666666669  0.3333333333333334  0.1218400600000000  
  0.6000000000000002  0.2000000000000001  0.1218400600000000  
  0.5333333333333334  0.0666666666666667  0.1218400600000000  
  0.7000000000000007  0.9000000000000005  0.1218400600000000  
  0.6333333333333334  0.7666666666666666  0.1218400600000000  
  0.5666666666666670  0.6333333333333335  0.1218400600000000  
  0.5000000000000004  0.5000000000000002  0.1218400600000000  
  0.4333333333333336  0.3666666666666668  0.1218400600000000  
  0.3666666666666668  0.2333333333333334  0.1218400600000000  
  0.3000000000000001  0.1000000000000000  0.1218400600000000  
  0.4666666666666672  0.9333333333333336  0.1218400600000000  
  0.4000000000000002  0.8000000000000000  0.1218400600000000  
  0.3333333333333334  0.6666666666666666  0.1218400600000000  
  0.2666666666666669  0.5333333333333335  0.1218400600000000  
  0.2000000000000001  0.4000000000000000  0.1218400600000000  
  0.1333333333333335  0.2666666666666668  0.1218400600000000  
  0.0666666666666667  0.1333333333333334  0.1218400600000000  
  0.2333333333333334  0.9666666666666667  0.1218400600000000  
  0.1666666666666667  0.8333333333333333  0.1218400600000000  
  0.1000000000000004  0.7000000000000002  0.1218400600000000  
  0.0333333333333335  0.5666666666666668  0.1218400600000000  
  1.0000000000000002  1.0000000000000000  0.4282048654006688  
  1.0000000000000000  0.9000000000000000  0.4282048654006688  
  1.0000000000000000  0.7999999999999999  0.4282048654006688  
  1.0000000000000000  0.6999999999999998  0.4282048654006688  
  0.9999999999999998  0.5999999999999999  0.4282048654006688  
  1.0000000000000000  0.5000000000000000  0.4282048654006688  
  1.0000000000000000  0.4000000000000001  0.4282048654006688  
  1.0000000000000000  0.2999999999999999  0.4282048654006688  
  1.0000000000000000  0.2000000000000000  0.4282048654006688  
  1.0000000000000000  0.1000000000000001  0.4282048654006688  
  0.6666666666666671  0.9666666666666670  0.4282048654006688  
  0.6666666666666666  0.8666666666666666  0.4282048654006688  
  0.6666666666666665  0.7666666666666666  0.4282048654006688  
  0.6666666666666664  0.6666666666666664  0.4282048654006688  
  0.6666666666666666  0.5666666666666667  0.4282048654006688  
  0.6666666666666667  0.4666666666666667  0.4282048654006688  
  0.6666666666666666  0.3666666666666666  0.4282048654006688  
  0.6666666666666665  0.2666666666666666  0.4282048654006688  
  0.6666666666666666  0.1666666666666667  0.4282048654006688  
  0.6666666666666667  0.0666666666666668  0.4282048654006688  
  0.3333333333333331  0.9333333333333330  0.4282048654006688  
  0.3333333333333336  0.8333333333333335  0.4282048654006688  
  0.3333333333333332  0.7333333333333332  0.4282048654006688  
  0.3333333333333333  0.6333333333333333  0.4282048654006688  
  0.3333333333333332  0.5333333333333332  0.4282048654006688  
  0.3333333333333333  0.4333333333333333  0.4282048654006688  
  0.3333333333333332  0.3333333333333332  0.4282048654006688  
  0.3333333333333334  0.2333333333333334  0.4282048654006688  
  0.3333333333333333  0.1333333333333333  0.4282048654006688  
  0.3333333333333334  0.0333333333333334  0.4282048654006688  
  1.0000000000000002  1.0000000000000000  0.3044547236115501  
  1.0000000000000000  0.9000000000000000  0.3044547236115501  
  1.0000000000000000  0.7999999999999999  0.3044547236115501  
  1.0000000000000000  0.6999999999999998  0.3044547236115501  
  0.9999999999999998  0.5999999999999999  0.3044547236115501  
  1.0000000000000000  0.5000000000000000  0.3044547236115501  
  1.0000000000000000  0.4000000000000001  0.3044547236115501  
  1.0000000000000000  0.2999999999999999  0.3044547236115501  
  1.0000000000000000  0.2000000000000000  0.3044547236115501  
  1.0000000000000000  0.1000000000000001  0.3044547236115501  
  0.6666666666666671  0.9666666666666670  0.3044547236115501  
  0.6666666666666666  0.8666666666666666  0.3044547236115501  
  0.6666666666666665  0.7666666666666666  0.3044547236115501  
  0.6666666666666664  0.6666666666666664  0.3044547236115501  
  0.6666666666666666  0.5666666666666667  0.3044547236115501  
  0.6666666666666667  0.4666666666666667  0.3044547236115501  
  0.6666666666666666  0.3666666666666666  0.3044547236115501  
  0.6666666666666665  0.2666666666666666  0.3044547236115501  
  0.6666666666666666  0.1666666666666667  0.3044547236115501  
  0.6666666666666667  0.0666666666666668  0.3044547236115501  
  0.3333333333333331  0.9333333333333330  0.3044547236115501  
  0.3333333333333336  0.8333333333333335  0.3044547236115501  
  0.3333333333333332  0.7333333333333332  0.3044547236115501  
  0.3333333333333333  0.6333333333333333  0.3044547236115501  
  0.3333333333333332  0.5333333333333332  0.3044547236115501  
  0.3333333333333333  0.4333333333333333  0.3044547236115501  
  0.3333333333333332  0.3333333333333332  0.3044547236115501  
  0.3333333333333334  0.2333333333333334  0.3044547236115501  
  0.3333333333333333  0.1333333333333333  0.3044547236115501  
  0.3333333333333334  0.0333333333333334  0.3044547236115501  
  0.9777777710333334  0.2888888855666667  0.1837151350000000  
  0.9111111043666669  0.1555555522333334  0.1837151350000000  
  0.8444444377000002  0.0222222189000001  0.1837151350000000  
  0.9444444377000005  0.7222222189000003  0.1837151350000000  
  0.8777777710333337  0.5888888855666669  0.1837151350000000  
  0.8111111043666669  0.4555555522333334  0.1837151350000000  
  0.7444444377000002  0.3222222189000001  0.1837151350000000  
  0.6777777710333334  0.1888888855666666  0.1837151350000000  
  0.6111111043666668  0.0555555522333334  0.1837151350000000  
  0.7777777710333341  0.8888888855666671  0.1837151350000000  
  0.7111111043666669  0.7555555522333335  0.1837151350000000  
  0.6444444377000005  0.6222222189000003  0.1837151350000000  
  0.5777777710333337  0.4888888855666669  0.1837151350000000  
  0.5111111043666670  0.3555555522333335  0.1837151350000000  
  0.4444444377000001  0.2222222189000000  0.1837151350000000  
  0.3777777710333335  0.0888888855666667  0.1837151350000000  
  0.5444444377000004  0.9222222189000001  0.1837151350000000  
  0.4777777710333333  0.7888888855666667  0.1837151350000000  
  0.4111111043666669  0.6555555522333335  0.1837151350000000  
  0.3444444377000001  0.5222222189000000  0.1837151350000000  
  0.2777777710333335  0.3888888855666667  0.1837151350000000  
  0.2111111043666667  0.2555555522333334  0.1837151350000000  
  0.1444444377000000  0.1222222189000000  0.1837151350000000  
  0.3111111043666670  0.9555555522333335  0.1837151350000000  
  0.2444444377000005  0.8222222189000004  0.1837151350000000  
  0.1777777710333335  0.6888888855666668  0.1837151350000000  
  0.1111111043666667  0.5555555522333333  0.1837151350000000  
  0.0444444377000000  0.4222222189000000  0.1837151350000000  
  0.0777777710333340  0.9888888855666670  0.1837151350000000  
  0.0111111043666669  0.8555555522333335  0.1837151350000000  
  0.9777777710333334  0.2888888855666667  0.0599649880000000  
  0.9111111043666669  0.1555555522333334  0.0599649880000000  
  0.8444444377000002  0.0222222189000001  0.0599649880000000  
  0.9444444377000005  0.7222222189000003  0.0599649880000000  
  0.8777777710333337  0.5888888855666669  0.0599649880000000  
  0.8111111043666669  0.4555555522333334  0.0599649880000000  
  0.7444444377000002  0.3222222189000001  0.0599649880000000  
  0.6777777710333334  0.1888888855666666  0.0599649880000000  
  0.6111111043666668  0.0555555522333334  0.0599649880000000  
  0.7777777710333341  0.8888888855666671  0.0599649880000000  
  0.7111111043666669  0.7555555522333335  0.0599649880000000  
  0.6444444377000005  0.6222222189000003  0.0599649880000000  
  0.5777777710333337  0.4888888855666669  0.0599649880000000  
  0.5111111043666670  0.3555555522333335  0.0599649880000000  
  0.4444444377000001  0.2222222189000000  0.0599649880000000  
  0.3777777710333335  0.0888888855666667  0.0599649880000000  
  0.5444444377000004  0.9222222189000001  0.0599649880000000  
  0.4777777710333333  0.7888888855666667  0.0599649880000000  
  0.4111111043666669  0.6555555522333335  0.0599649880000000  
  0.3444444377000001  0.5222222189000000  0.0599649880000000  
  0.2777777710333335  0.3888888855666667  0.0599649880000000  
  0.2111111043666667  0.2555555522333334  0.0599649880000000  
  0.1444444377000000  0.1222222189000000  0.0599649880000000  
  0.3111111043666670  0.9555555522333335  0.0599649880000000  
  0.2444444377000005  0.8222222189000004  0.0599649880000000  
  0.1777777710333335  0.6888888855666668  0.0599649880000000  
  0.1111111043666667  0.5555555522333333  0.0599649880000000  
  0.0444444377000000  0.4222222189000000  0.0599649880000000  
  0.0777777710333340  0.9888888855666670  0.0599649880000000  
  0.0111111043666669  0.8555555522333335  0.0599649880000000  
