 Mo S 
   1.00000000000000 
   -12.6431143420999987    5.4746277456000003    0.0000000000000000
     1.5803898915000003  -13.6865693640000003    0.0000000000000000
     0.0000000000000000    0.0000000000000000   25.3589382171999986
   Mo   S    
     38   76    
Direct
  0.7192982419837847  0.9649122765216417  0.3663297921006459  
  0.8771929788258899  0.8596491186269047  0.3663297921006459  
  0.2982456104048372  0.9122806975742732  0.3663297921006459  
  0.4561403472469424  0.8070175396795363  0.3663297921006459  
  0.6140350840890476  0.7017543817847995  0.3663297921006459  
  0.7719298209311529  0.5964912238900626  0.3663297921006459  
  0.9298245577732581  0.4912280659953258  0.3663297921006459  
  0.0350877156679951  0.7543859607321679  0.3663297921006459  
  0.1929824525101003  0.6491228028374308  0.3663297921006459  
  0.3508771893522055  0.5438596449426941  0.3663297921006459  
  0.5087719261943108  0.4385964870479575  0.3663297921006459  
  0.6666666630364160  0.3333333291532204  0.3663297921006459  
  0.8245613998785212  0.2280701712584836  0.3663297921006459  
  0.9824561367206265  0.1228070133637468  0.3663297921006459  
  0.0877192946153634  0.3859649081005888  0.3663297921006459  
  0.2456140314574687  0.2807017502058520  0.3663297921006459  
  0.4035087682995739  0.1754385923111152  0.3663297921006459  
  0.5614035051416792  0.0701754344163784  0.3663297921006459  
  0.1403508735627319  0.0175438554690099  0.3663297921006459  
  1.0000000000000002  1.0000000000000002  0.1218400600000000  
  0.7368421052631580  0.8947368421052632  0.1218400600000000  
  0.8421052631578949  0.7368421052631580  0.1218400600000000  
  0.9473684210526316  0.5789473684210525  0.1218400600000000  
  0.3684210526315790  0.9473684210526316  0.1218400600000000  
  0.4736842105263159  0.7894736842105264  0.1218400600000000  
  0.5789473684210527  0.6315789473684210  0.1218400600000000  
  0.6842105263157895  0.4736842105263158  0.1218400600000000  
  0.7894736842105263  0.3157894736842106  0.1218400600000000  
  0.8947368421052633  0.1578947368421054  0.1218400600000000  
  0.1052631578947369  0.8421052631578946  0.1218400600000000  
  0.2105263157894737  0.6842105263157894  0.1218400600000000  
  0.3157894736842106  0.5263157894736843  0.1218400600000000  
  0.4210526315789475  0.3684210526315790  0.1218400600000000  
  0.5263157894736843  0.2105263157894737  0.1218400600000000  
  0.6315789473684210  0.0526315789473684  0.1218400600000000  
  0.0526315789473684  0.4210526315789473  0.1218400600000000  
  0.1578947368421053  0.2631578947368421  0.1218400600000000  
  0.2631578947368421  0.1052631578947368  0.1218400600000000  
  0.9999999999999999  1.0000000000000004  0.4282048654006688  
  0.5789473684210524  0.9473684210526317  0.4282048654006688  
  0.7368421052631577  0.8421052631578948  0.4282048654006688  
  0.8947368421052631  0.7368421052631580  0.4282048654006688  
  0.1578947368421052  0.8947368421052632  0.4282048654006688  
  0.3157894736842104  0.7894736842105263  0.4282048654006688  
  0.4736842105263157  0.6842105263157897  0.4282048654006688  
  0.6315789473684210  0.5789473684210528  0.4282048654006688  
  0.7894736842105261  0.4736842105263159  0.4282048654006688  
  0.9473684210526314  0.3684210526315790  0.4282048654006688  
  0.0526315789473684  0.6315789473684211  0.4282048654006688  
  0.2105263157894737  0.5263157894736843  0.4282048654006688  
  0.3684210526315789  0.4210526315789474  0.4282048654006688  
  0.5263157894736842  0.3157894736842106  0.4282048654006688  
  0.6842105263157895  0.2105263157894738  0.4282048654006688  
  0.8421052631578947  0.1052631578947369  0.4282048654006688  
  0.1052631578947368  0.2631578947368421  0.4282048654006688  
  0.2631578947368421  0.1578947368421053  0.4282048654006688  
  0.4210526315789473  0.0526315789473685  0.4282048654006688  
  0.9999999999999999  1.0000000000000004  0.3044547236115501  
  0.5789473684210524  0.9473684210526317  0.3044547236115501  
  0.7368421052631577  0.8421052631578948  0.3044547236115501  
  0.8947368421052631  0.7368421052631580  0.3044547236115501  
  0.1578947368421052  0.8947368421052632  0.3044547236115501  
  0.3157894736842104  0.7894736842105263  0.3044547236115501  
  0.4736842105263157  0.6842105263157897  0.3044547236115501  
  0.6315789473684210  0.5789473684210528  0.3044547236115501  
  0.7894736842105261  0.4736842105263159  0.3044547236115501  
  0.9473684210526314  0.3684210526315790  0.3044547236115501  
  0.0526315789473684  0.6315789473684211  0.3044547236115501  
  0.2105263157894737  0.5263157894736843  0.3044547236115501  
  0.3684210526315789  0.4210526315789474  0.3044547236115501  
  0.5263157894736842  0.3157894736842106  0.3044547236115501  
  0.6842105263157895  0.2105263157894738  0.3044547236115501  
  0.8421052631578947  0.1052631578947369  0.3044547236115501  
  0.1052631578947368  0.2631578947368421  0.3044547236115501  
  0.2631578947368421  0.1578947368421053  0.3044547236115501  
  0.4210526315789473  0.0526315789473685  0.3044547236115501  
  0.8596491184736843  0.8771929787894737  0.1837151350000000  
  0.9649122763684211  0.7192982419473685  0.1837151350000000  
  0.4912280658421053  0.9298245577368421  0.1837151350000000  
  0.5964912237368422  0.7719298208947367  0.1837151350000000  
  0.7017543816315790  0.6140350840526316  0.1837151350000000  
  0.8070175395263157  0.4561403472105263  0.1837151350000000  
  0.9122806974210527  0.2982456103684210  0.1837151350000000  
  0.1228070132105262  0.9824561366842104  0.1837151350000000  
  0.2280701711052631  0.8245613998421053  0.1837151350000000  
  0.3333333290000000  0.6666666630000000  0.1837151350000000  
  0.4385964868947368  0.5087719261578947  0.1837151350000000  
  0.5438596447894737  0.3508771893157894  0.1837151350000000  
  0.6491228026842105  0.1929824524736842  0.1837151350000000  
  0.7543859605789474  0.0350877156315790  0.1837151350000000  
  0.0701754342631579  0.5614035051052632  0.1837151350000000  
  0.1754385921578948  0.4035087682631578  0.1837151350000000  
  0.2807017500526316  0.2456140314210526  0.1837151350000000  
  0.3859649079473684  0.0877192945789474  0.1837151350000000  
  0.0175438553157895  0.1403508735263158  0.1837151350000000  
  0.8596491184736843  0.8771929787894737  0.0599649880000000  
  0.9649122763684211  0.7192982419473685  0.0599649880000000  
  0.4912280658421053  0.9298245577368421  0.0599649880000000  
  0.5964912237368422  0.7719298208947367  0.0599649880000000  
  0.7017543816315790  0.6140350840526316  0.0599649880000000  
  0.8070175395263157  0.4561403472105263  0.0599649880000000  
  0.9122806974210527  0.2982456103684210  0.0599649880000000  
  0.1228070132105262  0.9824561366842104  0.0599649880000000  
  0.2280701711052631  0.8245613998421053  0.0599649880000000  
  0.3333333290000000  0.6666666630000000  0.0599649880000000  
  0.4385964868947368  0.5087719261578947  0.0599649880000000  
  0.5438596447894737  0.3508771893157894  0.0599649880000000  
  0.6491228026842105  0.1929824524736842  0.0599649880000000  
  0.7543859605789474  0.0350877156315790  0.0599649880000000  
  0.0701754342631579  0.5614035051052632  0.0599649880000000  
  0.1754385921578948  0.4035087682631578  0.0599649880000000  
  0.2807017500526316  0.2456140314210526  0.0599649880000000  
  0.3859649079473684  0.0877192945789474  0.0599649880000000  
  0.0175438553157895  0.1403508735263158  0.0599649880000000  
