 Mo S 
   1.00000000000000 
   -18.9646716391999988   10.9492554912000006    0.0000000000000000
     0.0000010083999999  -21.8985109824000013    0.0000000000000000
     0.0000000000000000    0.0000000000000000   25.3589382171999986
   Mo   S    
     97   194    
Direct
  0.8231292494892996  0.9727891130129188  0.3663297921006459  
  0.9251700658158304  0.9115646232170004  0.3663297921006459  
  0.4557823107137896  0.9931972762782251  0.3663297921006459  
  0.5578231270403201  0.9319727864823066  0.3663297921006459  
  0.6598639433668507  0.8707482966863884  0.3663297921006459  
  0.7619047596933813  0.8095238068904697  0.3663297921006459  
  0.8639455760199118  0.7482993170945516  0.3663297921006459  
  0.9659863923464427  0.6870748272986331  0.3663297921006459  
  0.1904761882648098  0.9523809497476127  0.3663297921006459  
  0.2925170045913405  0.8911564599516945  0.3663297921006459  
  0.3945578209178711  0.8299319701557760  0.3663297921006459  
  0.4965986372444017  0.7687074803598575  0.3663297921006459  
  0.5986394535709323  0.7074829905639393  0.3663297921006459  
  0.7006802698974628  0.6462585007680208  0.3663297921006459  
  0.8027210862239935  0.5850340109721025  0.3663297921006459  
  0.9047619025505241  0.5238095211761841  0.3663297921006459  
  0.0272108821423609  0.8503401334210819  0.3663297921006459  
  0.1292516984688916  0.7891156436251637  0.3663297921006459  
  0.2312925147954221  0.7278911538292455  0.3663297921006459  
  0.3333333311219527  0.6666666640333270  0.3663297921006459  
  0.4353741474484834  0.6054421742374086  0.3663297921006459  
  0.5374149637750140  0.5442176844414904  0.3663297921006459  
  0.6394557801015445  0.4829931946455720  0.3663297921006459  
  0.7414965964280751  0.4217687048496537  0.3663297921006459  
  0.8435374127546058  0.3605442150537354  0.3663297921006459  
  0.9455782290811364  0.2993197252578169  0.3663297921006459  
  0.0680272086729731  0.6258503375027148  0.3663297921006459  
  0.1700680249995037  0.5646258477067965  0.3663297921006459  
  0.2721088413260343  0.5034013579108780  0.3663297921006459  
  0.3741496576525649  0.4421768681149596  0.3663297921006459  
  0.4761904739790955  0.3809523783190413  0.3663297921006459  
  0.5782312903056261  0.3197278885231229  0.3663297921006459  
  0.6802721066321566  0.2585033987272046  0.3663297921006459  
  0.7823129229586874  0.1972789089312862  0.3663297921006459  
  0.8843537392852179  0.1360544191353679  0.3663297921006459  
  0.9863945556117485  0.0748299293394495  0.3663297921006459  
  0.0068027188770547  0.4625850313802659  0.3663297921006459  
  0.1088435352035853  0.4013605415843474  0.3663297921006459  
  0.2108843515301159  0.3401360517884291  0.3663297921006459  
  0.3129251678566465  0.2789115619925108  0.3663297921006459  
  0.4149659841831771  0.2176870721965924  0.3663297921006459  
  0.5170068005097077  0.1564625824006740  0.3663297921006459  
  0.6190476168362383  0.0952380926047556  0.3663297921006459  
  0.7210884331627689  0.0340136028088372  0.3663297921006459  
  0.0476190454076669  0.2380952354618985  0.3663297921006459  
  0.1496598617341975  0.1768707456659802  0.3663297921006459  
  0.2517006780607281  0.1156462558700618  0.3663297921006459  
  0.3537414943872587  0.0544217660741434  0.3663297921006459  
  0.0884353719382792  0.0136054395435312  0.3663297921006459  
  1.0000000000000000  1.0000000000000000  0.1218400600000000  
  0.7500000000000000  1.0000000000000000  0.1218400600000000  
  0.8333333333333334  0.9166666666666667  0.1218400600000000  
  0.9166666666666666  0.8333333333333334  0.1218400600000000  
  1.0000000000000000  0.7500000000000000  0.1218400600000000  
  0.5000000000000001  1.0000000000000000  0.1218400600000000  
  0.5833333333333334  0.9166666666666666  0.1218400600000000  
  0.6666666666666667  0.8333333333333334  0.1218400600000000  
  0.7500000000000001  0.7500000000000000  0.1218400600000000  
  0.8333333333333334  0.6666666666666666  0.1218400600000000  
  0.9166666666666669  0.5833333333333334  0.1218400600000000  
  1.0000000000000000  0.5000000000000000  0.1218400600000000  
  0.2500000000000000  1.0000000000000000  0.1218400600000000  
  0.3333333333333334  0.9166666666666667  0.1218400600000000  
  0.4166666666666666  0.8333333333333333  0.1218400600000000  
  0.5000000000000000  0.7500000000000000  0.1218400600000000  
  0.5833333333333334  0.6666666666666667  0.1218400600000000  
  0.6666666666666667  0.5833333333333334  0.1218400600000000  
  0.7499999999999999  0.4999999999999999  0.1218400600000000  
  0.8333333333333333  0.4166666666666666  0.1218400600000000  
  0.9166666666666666  0.3333333333333333  0.1218400600000000  
  1.0000000000000000  0.2499999999999999  0.1218400600000000  
  0.0833333333333334  0.9166666666666666  0.1218400600000000  
  0.1666666666666667  0.8333333333333334  0.1218400600000000  
  0.2500000000000000  0.7500000000000000  0.1218400600000000  
  0.3333333333333333  0.6666666666666667  0.1218400600000000  
  0.4166666666666667  0.5833333333333334  0.1218400600000000  
  0.5000000000000000  0.5000000000000000  0.1218400600000000  
  0.5833333333333333  0.4166666666666666  0.1218400600000000  
  0.6666666666666666  0.3333333333333334  0.1218400600000000  
  0.7500000000000000  0.2500000000000000  0.1218400600000000  
  0.8333333333333333  0.1666666666666667  0.1218400600000000  
  0.9166666666666666  0.0833333333333331  0.1218400600000000  
  0.0833333333333333  0.6666666666666666  0.1218400600000000  
  0.1666666666666667  0.5833333333333334  0.1218400600000000  
  0.2500000000000001  0.5000000000000000  0.1218400600000000  
  0.3333333333333334  0.4166666666666667  0.1218400600000000  
  0.4166666666666667  0.3333333333333333  0.1218400600000000  
  0.5000000000000000  0.2500000000000000  0.1218400600000000  
  0.5833333333333334  0.1666666666666667  0.1218400600000000  
  0.6666666666666666  0.0833333333333333  0.1218400600000000  
  0.0833333333333334  0.4166666666666667  0.1218400600000000  
  0.1666666666666667  0.3333333333333334  0.1218400600000000  
  0.2500000000000000  0.2500000000000000  0.1218400600000000  
  0.3333333333333333  0.1666666666666667  0.1218400600000000  
  0.4166666666666666  0.0833333333333333  0.1218400600000000  
  0.0833333333333333  0.1666666666666667  0.1218400600000000  
  0.1666666666666667  0.0833333333333333  0.1218400600000000  
  1.0000000000000000  0.9999999999999997  0.4282048654006688  
  0.7346938775510202  0.9591836734693874  0.4282048654006688  
  0.8367346938775508  0.8979591836734693  0.4282048654006688  
  0.9387755102040817  0.8367346938775511  0.4282048654006688  
  0.3673469387755103  0.9795918367346940  0.4282048654006688  
  0.4693877551020408  0.9183673469387755  0.4282048654006688  
  0.5714285714285715  0.8571428571428571  0.4282048654006688  
  0.6734693877551021  0.7959183673469389  0.4282048654006688  
  0.7755102040816326  0.7346938775510202  0.4282048654006688  
  0.8775510204081634  0.6734693877551019  0.4282048654006688  
  0.9795918367346940  0.6122448979591835  0.4282048654006688  
  0.1020408163265306  0.9387755102040815  0.4282048654006688  
  0.2040816326530612  0.8775510204081630  0.4282048654006688  
  0.3061224489795918  0.8163265306122448  0.4282048654006688  
  0.4081632653061224  0.7551020408163264  0.4282048654006688  
  0.5102040816326531  0.6938775510204082  0.4282048654006688  
  0.6122448979591836  0.6326530612244897  0.4282048654006688  
  0.7142857142857143  0.5714285714285712  0.4282048654006688  
  0.8163265306122449  0.5102040816326530  0.4282048654006688  
  0.9183673469387754  0.4489795918367346  0.4282048654006688  
  0.0408163265306123  0.7755102040816324  0.4282048654006688  
  0.1428571428571429  0.7142857142857141  0.4282048654006688  
  0.2448979591836735  0.6530612244897960  0.4282048654006688  
  0.3469387755102041  0.5918367346938775  0.4282048654006688  
  0.4489795918367347  0.5306122448979590  0.4282048654006688  
  0.5510204081632654  0.4693877551020407  0.4282048654006688  
  0.6530612244897959  0.4081632653061224  0.4282048654006688  
  0.7551020408163265  0.3469387755102039  0.4282048654006688  
  0.8571428571428571  0.2857142857142856  0.4282048654006688  
  0.9591836734693877  0.2244897959183672  0.4282048654006688  
  0.0816326530612245  0.5510204081632653  0.4282048654006688  
  0.1836734693877551  0.4897959183673470  0.4282048654006688  
  0.2857142857142858  0.4285714285714285  0.4282048654006688  
  0.3877551020408163  0.3673469387755101  0.4282048654006688  
  0.4897959183673470  0.3061224489795917  0.4282048654006688  
  0.5918367346938775  0.2448979591836734  0.4282048654006688  
  0.6938775510204082  0.1836734693877550  0.4282048654006688  
  0.7959183673469388  0.1224489795918366  0.4282048654006688  
  0.8979591836734694  0.0612244897959183  0.4282048654006688  
  0.0204081632653061  0.3877551020408162  0.4282048654006688  
  0.1224489795918367  0.3265306122448980  0.4282048654006688  
  0.2244897959183673  0.2653061224489795  0.4282048654006688  
  0.3265306122448979  0.2040816326530612  0.4282048654006688  
  0.4285714285714285  0.1428571428571428  0.4282048654006688  
  0.5306122448979592  0.0816326530612244  0.4282048654006688  
  0.6326530612244898  0.0204081632653060  0.4282048654006688  
  0.0612244897959184  0.1632653061224490  0.4282048654006688  
  0.1632653061224490  0.1020408163265306  0.4282048654006688  
  0.2653061224489796  0.0408163265306122  0.4282048654006688  
  1.0000000000000000  0.9999999999999997  0.3044547236115501  
  0.7346938775510202  0.9591836734693874  0.3044547236115501  
  0.8367346938775508  0.8979591836734693  0.3044547236115501  
  0.9387755102040817  0.8367346938775511  0.3044547236115501  
  0.3673469387755103  0.9795918367346940  0.3044547236115501  
  0.4693877551020408  0.9183673469387755  0.3044547236115501  
  0.5714285714285715  0.8571428571428571  0.3044547236115501  
  0.6734693877551021  0.7959183673469389  0.3044547236115501  
  0.7755102040816326  0.7346938775510202  0.3044547236115501  
  0.8775510204081634  0.6734693877551019  0.3044547236115501  
  0.9795918367346940  0.6122448979591835  0.3044547236115501  
  0.1020408163265306  0.9387755102040815  0.3044547236115501  
  0.2040816326530612  0.8775510204081630  0.3044547236115501  
  0.3061224489795918  0.8163265306122448  0.3044547236115501  
  0.4081632653061224  0.7551020408163264  0.3044547236115501  
  0.5102040816326531  0.6938775510204082  0.3044547236115501  
  0.6122448979591836  0.6326530612244897  0.3044547236115501  
  0.7142857142857143  0.5714285714285712  0.3044547236115501  
  0.8163265306122449  0.5102040816326530  0.3044547236115501  
  0.9183673469387754  0.4489795918367346  0.3044547236115501  
  0.0408163265306123  0.7755102040816324  0.3044547236115501  
  0.1428571428571429  0.7142857142857141  0.3044547236115501  
  0.2448979591836735  0.6530612244897960  0.3044547236115501  
  0.3469387755102041  0.5918367346938775  0.3044547236115501  
  0.4489795918367347  0.5306122448979590  0.3044547236115501  
  0.5510204081632654  0.4693877551020407  0.3044547236115501  
  0.6530612244897959  0.4081632653061224  0.3044547236115501  
  0.7551020408163265  0.3469387755102039  0.3044547236115501  
  0.8571428571428571  0.2857142857142856  0.3044547236115501  
  0.9591836734693877  0.2244897959183672  0.3044547236115501  
  0.0816326530612245  0.5510204081632653  0.3044547236115501  
  0.1836734693877551  0.4897959183673470  0.3044547236115501  
  0.2857142857142858  0.4285714285714285  0.3044547236115501  
  0.3877551020408163  0.3673469387755101  0.3044547236115501  
  0.4897959183673470  0.3061224489795917  0.3044547236115501  
  0.5918367346938775  0.2448979591836734  0.3044547236115501  
  0.6938775510204082  0.1836734693877550  0.3044547236115501  
  0.7959183673469388  0.1224489795918366  0.3044547236115501  
  0.8979591836734694  0.0612244897959183  0.3044547236115501  
  0.0204081632653061  0.3877551020408162  0.3044547236115501  
  0.1224489795918367  0.3265306122448980  0.3044547236115501  
  0.2244897959183673  0.2653061224489795  0.3044547236115501  
  0.3265306122448979  0.2040816326530612  0.3044547236115501  
  0.4285714285714285  0.1428571428571428  0.3044547236115501  
  0.5306122448979592  0.0816326530612244  0.3044547236115501  
  0.6326530612244898  0.0204081632653060  0.3044547236115501  
  0.0612244897959184  0.1632653061224490  0.3044547236115501  
  0.1632653061224490  0.1020408163265306  0.3044547236115501  
  0.2653061224489796  0.0408163265306122  0.3044547236115501  
  0.8333333307500000  0.9999999975000001  0.1837151350000000  
  0.9166666640833332  0.9166666641666665  0.1837151350000000  
  0.9999999974166667  0.8333333308333334  0.1837151350000000  
  0.5833333307500000  0.9999999975000001  0.1837151350000000  
  0.6666666640833333  0.9166666641666665  0.1837151350000000  
  0.7499999974166667  0.8333333308333334  0.1837151350000000  
  0.8333333307500000  0.7499999975000001  0.1837151350000000  
  0.9166666640833334  0.6666666641666666  0.1837151350000000  
  0.9999999974166667  0.5833333308333334  0.1837151350000000  
  0.3333333307500000  0.9999999975000002  0.1837151350000000  
  0.4166666640833333  0.9166666641666668  0.1837151350000000  
  0.4999999974166666  0.8333333308333334  0.1837151350000000  
  0.5833333307500000  0.7499999975000001  0.1837151350000000  
  0.6666666640833334  0.6666666641666668  0.1837151350000000  
  0.7499999974166667  0.5833333308333333  0.1837151350000000  
  0.8333333307500000  0.4999999975000000  0.1837151350000000  
  0.9166666640833334  0.4166666641666668  0.1837151350000000  
  0.9999999974166667  0.3333333308333334  0.1837151350000000  
  0.0833333307500000  0.9999999975000002  0.1837151350000000  
  0.1666666640833333  0.9166666641666668  0.1837151350000000  
  0.2499999974166666  0.8333333308333334  0.1837151350000000  
  0.3333333307499999  0.7499999975000001  0.1837151350000000  
  0.4166666640833332  0.6666666641666666  0.1837151350000000  
  0.4999999974166666  0.5833333308333334  0.1837151350000000  
  0.5833333307500000  0.4999999975000000  0.1837151350000000  
  0.6666666640833333  0.4166666641666666  0.1837151350000000  
  0.7499999974166667  0.3333333308333333  0.1837151350000000  
  0.8333333307500000  0.2499999974999999  0.1837151350000000  
  0.9166666640833332  0.1666666641666666  0.1837151350000000  
  0.9999999974166667  0.0833333308333333  0.1837151350000000  
  0.0833333307499999  0.7499999975000000  0.1837151350000000  
  0.1666666640833333  0.6666666641666666  0.1837151350000000  
  0.2499999974166666  0.5833333308333334  0.1837151350000000  
  0.3333333307500000  0.4999999975000000  0.1837151350000000  
  0.4166666640833334  0.4166666641666666  0.1837151350000000  
  0.4999999974166666  0.3333333308333333  0.1837151350000000  
  0.5833333307500000  0.2499999974999999  0.1837151350000000  
  0.6666666640833334  0.1666666641666667  0.1837151350000000  
  0.7499999974166667  0.0833333308333333  0.1837151350000000  
  0.0833333307500000  0.4999999975000000  0.1837151350000000  
  0.1666666640833333  0.4166666641666666  0.1837151350000000  
  0.2499999974166666  0.3333333308333333  0.1837151350000000  
  0.3333333307500000  0.2499999975000000  0.1837151350000000  
  0.4166666640833332  0.1666666641666666  0.1837151350000000  
  0.4999999974166667  0.0833333308333333  0.1837151350000000  
  0.0833333307500000  0.2499999975000000  0.1837151350000000  
  0.1666666640833333  0.1666666641666666  0.1837151350000000  
  0.2499999974166666  0.0833333308333333  0.1837151350000000  
  0.8333333307500000  0.9999999975000001  0.0599649880000000  
  0.9166666640833332  0.9166666641666665  0.0599649880000000  
  0.9999999974166667  0.8333333308333334  0.0599649880000000  
  0.5833333307500000  0.9999999975000001  0.0599649880000000  
  0.6666666640833333  0.9166666641666665  0.0599649880000000  
  0.7499999974166667  0.8333333308333334  0.0599649880000000  
  0.8333333307500000  0.7499999975000001  0.0599649880000000  
  0.9166666640833334  0.6666666641666666  0.0599649880000000  
  0.9999999974166667  0.5833333308333334  0.0599649880000000  
  0.3333333307500000  0.9999999975000002  0.0599649880000000  
  0.4166666640833333  0.9166666641666668  0.0599649880000000  
  0.4999999974166666  0.8333333308333334  0.0599649880000000  
  0.5833333307500000  0.7499999975000001  0.0599649880000000  
  0.6666666640833334  0.6666666641666668  0.0599649880000000  
  0.7499999974166667  0.5833333308333333  0.0599649880000000  
  0.8333333307500000  0.4999999975000000  0.0599649880000000  
  0.9166666640833334  0.4166666641666668  0.0599649880000000  
  0.9999999974166667  0.3333333308333334  0.0599649880000000  
  0.0833333307500000  0.9999999975000002  0.0599649880000000  
  0.1666666640833333  0.9166666641666668  0.0599649880000000  
  0.2499999974166666  0.8333333308333334  0.0599649880000000  
  0.3333333307499999  0.7499999975000001  0.0599649880000000  
  0.4166666640833332  0.6666666641666666  0.0599649880000000  
  0.4999999974166666  0.5833333308333334  0.0599649880000000  
  0.5833333307500000  0.4999999975000000  0.0599649880000000  
  0.6666666640833333  0.4166666641666666  0.0599649880000000  
  0.7499999974166667  0.3333333308333333  0.0599649880000000  
  0.8333333307500000  0.2499999974999999  0.0599649880000000  
  0.9166666640833332  0.1666666641666666  0.0599649880000000  
  0.9999999974166667  0.0833333308333333  0.0599649880000000  
  0.0833333307499999  0.7499999975000000  0.0599649880000000  
  0.1666666640833333  0.6666666641666666  0.0599649880000000  
  0.2499999974166666  0.5833333308333334  0.0599649880000000  
  0.3333333307500000  0.4999999975000000  0.0599649880000000  
  0.4166666640833334  0.4166666641666666  0.0599649880000000  
  0.4999999974166666  0.3333333308333333  0.0599649880000000  
  0.5833333307500000  0.2499999974999999  0.0599649880000000  
  0.6666666640833334  0.1666666641666667  0.0599649880000000  
  0.7499999974166667  0.0833333308333333  0.0599649880000000  
  0.0833333307500000  0.4999999975000000  0.0599649880000000  
  0.1666666640833333  0.4166666641666666  0.0599649880000000  
  0.2499999974166666  0.3333333308333333  0.0599649880000000  
  0.3333333307500000  0.2499999975000000  0.0599649880000000  
  0.4166666640833332  0.1666666641666666  0.0599649880000000  
  0.4999999974166667  0.0833333308333333  0.0599649880000000  
  0.0833333307500000  0.2499999975000000  0.0599649880000000  
  0.1666666640833333  0.1666666641666666  0.0599649880000000  
  0.2499999974166666  0.0833333308333333  0.0599649880000000  
