 Mo S 
   1.00000000000000 
    -1.5803891351999999   -2.7373138728000002    0.0000000000000000
     1.5803893872999999   -2.7373138728000002    0.0000000000000000
     0.0000000000000000    0.0000000000000000   25.3589382171999986
   Mo   S    
     2   4    
Direct
  0.3333333431243601  0.3333333135324937  0.3663297921006459  
  1.0000000000000000  1.0000000000000000  0.1218400600000000  
  1.0000000000000000  1.0000000000000000  0.4282048654006688  
  1.0000000000000000  1.0000000000000000  0.3044547236115501  
  0.3333333440000000  0.3333333129999999  0.1837151350000000  
  0.3333333440000000  0.3333333129999999  0.0599649880000000  
