 Mo S 
   1.00000000000000 
   -20.5450597659999978  -13.6865693640000003    0.0000000000000000
     1.5803903957000003  -24.6358248552000028    0.0000000000000000
     0.0000000000000000    0.0000000000000000   25.3589382171999986
   Mo   S    
     122   244    
Direct
  0.9945355189472411  0.9289617465329210  0.3663297921006459  
  0.9125683058324869  0.8633879760411176  0.3663297921006459  
  0.7650273222259295  0.9453551891558718  0.3663297921006459  
  0.9781420763242903  0.7158469924345601  0.3663297921006459  
  0.8306010927177329  0.7978142055493141  0.3663297921006459  
  0.6830601091111755  0.8797814186640686  0.3663297921006459  
  0.5355191255046182  0.9617486317788225  0.3663297921006459  
  0.8961748632095360  0.6502732219427571  0.3663297921006459  
  0.7486338796029787  0.7322404350575115  0.3663297921006459  
  0.6010928959964214  0.8142076481722654  0.3663297921006459  
  0.4535519123898640  0.8961748612870193  0.3663297921006459  
  0.3060109287833067  0.9781420744017734  0.3663297921006459  
  0.9617486337013395  0.5027322383361996  0.3663297921006459  
  0.8142076500947820  0.5846994514509539  0.3663297921006459  
  0.6666666664882246  0.6666666645657079  0.3663297921006459  
  0.5191256828816672  0.7486338776804622  0.3663297921006459  
  0.3715846992751100  0.8306010907952159  0.3663297921006459  
  0.2240437156685524  0.9125683039099702  0.3663297921006459  
  0.0765027320619951  0.9945355170247243  0.3663297921006459  
  0.8797814205865853  0.4371584678443964  0.3663297921006459  
  0.7322404369800279  0.5191256809591506  0.3663297921006459  
  0.5846994533734705  0.6010928940739046  0.3663297921006459  
  0.4371584697669131  0.6830601071886587  0.3663297921006459  
  0.2896174861603556  0.7650273203034129  0.3663297921006459  
  0.1420765025537984  0.8469945334181670  0.3663297921006459  
  0.9453551910783886  0.2896174842378390  0.3663297921006459  
  0.7978142074718313  0.3715846973525930  0.3663297921006459  
  0.6502732238652738  0.4535519104673472  0.3663297921006459  
  0.5027322402587164  0.5355191235821013  0.3663297921006459  
  0.3551912566521591  0.6174863366968554  0.3663297921006459  
  0.2076502730456017  0.6994535498116095  0.3663297921006459  
  0.0601092894390443  0.7814207629263636  0.3663297921006459  
  0.8633879779636344  0.2240437137460358  0.3663297921006459  
  0.7158469943570771  0.3060109268607899  0.3663297921006459  
  0.5683060107505198  0.3879781399755440  0.3663297921006459  
  0.4207650271439623  0.4699453530902981  0.3663297921006459  
  0.2732240435374050  0.5519125662050521  0.3663297921006459  
  0.1256830599308477  0.6338797793198062  0.3663297921006459  
  0.9289617484554378  0.0765027301394783  0.3663297921006459  
  0.7814207648488803  0.1584699432542324  0.3663297921006459  
  0.6338797812423229  0.2404371563689865  0.3663297921006459  
  0.4863387976357656  0.3224043694837407  0.3663297921006459  
  0.3387978140292083  0.4043715825984947  0.3663297921006459  
  0.1912568304226509  0.4863387957132488  0.3663297921006459  
  0.0437158468160934  0.5683060088280030  0.3663297921006459  
  0.8469945353406836  0.0109289596476751  0.3663297921006459  
  0.6994535517341263  0.0928961727624292  0.3663297921006459  
  0.5519125681275688  0.1748633858771833  0.3663297921006459  
  0.4043715845210115  0.2568305989919374  0.3663297921006459  
  0.2568306009144541  0.3387978121066915  0.3663297921006459  
  0.1092896173078968  0.4207650252214455  0.3663297921006459  
  0.6174863386193722  0.0273224022706259  0.3663297921006459  
  0.4699453550128149  0.1092896153853799  0.3663297921006459  
  0.3224043714062575  0.1912568285001340  0.3663297921006459  
  0.1748633877997001  0.2732240416148881  0.3663297921006459  
  0.0273224041931427  0.3551912547296422  0.3663297921006459  
  0.3879781418980608  0.0437158448935766  0.3663297921006459  
  0.2404371582915034  0.1256830580083307  0.3663297921006459  
  0.0928961746849460  0.2076502711230848  0.3663297921006459  
  0.1584699451767493  0.0601092875165274  0.3663297921006459  
  0.0109289615701920  0.1420765006312815  0.3663297921006459  
  0.9999999999999999  1.0000000000000000  0.1218400600000000  
  0.9344262295081969  0.9180327868852458  0.1218400600000000  
  0.7868852459016392  0.9836065573770494  0.1218400600000000  
  0.8688524590163934  0.8360655737704920  0.1218400600000000  
  0.7213114754098361  0.9016393442622951  0.1218400600000000  
  0.5737704918032787  0.9672131147540983  0.1218400600000000  
  0.9508196721311475  0.6885245901639345  0.1218400600000000  
  0.8032786885245902  0.7540983606557377  0.1218400600000000  
  0.6557377049180327  0.8196721311475410  0.1218400600000000  
  0.5081967213114755  0.8852459016393441  0.1218400600000000  
  0.3606557377049181  0.9508196721311475  0.1218400600000000  
  0.8852459016393442  0.6065573770491802  0.1218400600000000  
  0.7377049180327869  0.6721311475409836  0.1218400600000000  
  0.5901639344262297  0.7377049180327868  0.1218400600000000  
  0.4426229508196722  0.8032786885245901  0.1218400600000000  
  0.2950819672131147  0.8688524590163934  0.1218400600000000  
  0.1475409836065575  0.9344262295081965  0.1218400600000000  
  0.9672131147540983  0.4590163934426229  0.1218400600000000  
  0.8196721311475409  0.5245901639344261  0.1218400600000000  
  0.6721311475409836  0.5901639344262294  0.1218400600000000  
  0.5245901639344261  0.6557377049180328  0.1218400600000000  
  0.3770491803278688  0.7213114754098361  0.1218400600000000  
  0.2295081967213115  0.7868852459016393  0.1218400600000000  
  0.0819672131147541  0.8524590163934427  0.1218400600000000  
  0.9016393442622950  0.3770491803278688  0.1218400600000000  
  0.7540983606557379  0.4426229508196721  0.1218400600000000  
  0.6065573770491802  0.5081967213114754  0.1218400600000000  
  0.4590163934426228  0.5737704918032788  0.1218400600000000  
  0.3114754098360655  0.6393442622950821  0.1218400600000000  
  0.1639344262295082  0.7049180327868853  0.1218400600000000  
  0.0163934426229508  0.7704918032786886  0.1218400600000000  
  0.9836065573770492  0.2295081967213115  0.1218400600000000  
  0.8360655737704918  0.2950819672131148  0.1218400600000000  
  0.6885245901639344  0.3606557377049181  0.1218400600000000  
  0.5409836065573771  0.4262295081967213  0.1218400600000000  
  0.3934426229508196  0.4918032786885247  0.1218400600000000  
  0.2459016393442622  0.5573770491803279  0.1218400600000000  
  0.0983606557377050  0.6229508196721311  0.1218400600000000  
  0.9180327868852458  0.1475409836065573  0.1218400600000000  
  0.7704918032786885  0.2131147540983607  0.1218400600000000  
  0.6229508196721311  0.2786885245901640  0.1218400600000000  
  0.4754098360655737  0.3442622950819673  0.1218400600000000  
  0.3278688524590164  0.4098360655737705  0.1218400600000000  
  0.1803278688524591  0.4754098360655737  0.1218400600000000  
  0.0327868852459017  0.5409836065573770  0.1218400600000000  
  0.8524590163934426  0.0655737704918033  0.1218400600000000  
  0.7049180327868850  0.1311475409836066  0.1218400600000000  
  0.5573770491803278  0.1967213114754099  0.1218400600000000  
  0.4098360655737704  0.2622950819672131  0.1218400600000000  
  0.2622950819672131  0.3278688524590164  0.1218400600000000  
  0.1147540983606558  0.3934426229508197  0.1218400600000000  
  0.6393442622950819  0.0491803278688526  0.1218400600000000  
  0.4918032786885246  0.1147540983606557  0.1218400600000000  
  0.3442622950819672  0.1803278688524591  0.1218400600000000  
  0.1967213114754098  0.2459016393442623  0.1218400600000000  
  0.0491803278688525  0.3114754098360655  0.1218400600000000  
  0.4262295081967213  0.0327868852459016  0.1218400600000000  
  0.2786885245901639  0.0983606557377050  0.1218400600000000  
  0.1311475409836065  0.1639344262295082  0.1218400600000000  
  0.2131147540983606  0.0163934426229508  0.1218400600000000  
  0.0655737704918033  0.0819672131147541  0.1218400600000000  
  1.0000000000000002  1.0000000000000000  0.4282048654006688  
  0.9180327868852457  0.9344262295081970  0.4282048654006688  
  0.9836065573770491  0.7868852459016396  0.4282048654006688  
  0.8360655737704916  0.8688524590163937  0.4282048654006688  
  0.6885245901639343  0.9508196721311477  0.4282048654006688  
  0.9016393442622950  0.7213114754098362  0.4282048654006688  
  0.7540983606557375  0.8032786885245903  0.4282048654006688  
  0.6065573770491801  0.8852459016393444  0.4282048654006688  
  0.4590163934426228  0.9672131147540985  0.4282048654006688  
  0.9672131147540982  0.5737704918032788  0.4282048654006688  
  0.8196721311475409  0.6557377049180328  0.4282048654006688  
  0.6721311475409836  0.7377049180327870  0.4282048654006688  
  0.5245901639344260  0.8196721311475411  0.4282048654006688  
  0.3770491803278687  0.9016393442622952  0.4282048654006688  
  0.2295081967213114  0.9836065573770493  0.4282048654006688  
  0.8852459016393439  0.5081967213114756  0.4282048654006688  
  0.7377049180327869  0.5901639344262297  0.4282048654006688  
  0.5901639344262294  0.6721311475409837  0.4282048654006688  
  0.4426229508196720  0.7540983606557378  0.4282048654006688  
  0.2950819672131147  0.8360655737704918  0.4282048654006688  
  0.1475409836065572  0.9180327868852459  0.4282048654006688  
  0.9508196721311473  0.3606557377049181  0.4282048654006688  
  0.8032786885245903  0.4426229508196722  0.4282048654006688  
  0.6557377049180326  0.5245901639344265  0.4282048654006688  
  0.5081967213114754  0.6065573770491803  0.4282048654006688  
  0.3606557377049179  0.6885245901639345  0.4282048654006688  
  0.2131147540983606  0.7704918032786885  0.4282048654006688  
  0.0655737704918033  0.8524590163934426  0.4282048654006688  
  0.8688524590163936  0.2950819672131147  0.4282048654006688  
  0.7213114754098360  0.3770491803278689  0.4282048654006688  
  0.5737704918032788  0.4590163934426228  0.4282048654006688  
  0.4262295081967213  0.5409836065573771  0.4282048654006688  
  0.2786885245901640  0.6229508196721312  0.4282048654006688  
  0.1311475409836064  0.7049180327868854  0.4282048654006688  
  0.9344262295081966  0.1475409836065574  0.4282048654006688  
  0.7868852459016393  0.2295081967213116  0.4282048654006688  
  0.6393442622950819  0.3114754098360656  0.4282048654006688  
  0.4918032786885245  0.3934426229508198  0.4282048654006688  
  0.3442622950819672  0.4754098360655739  0.4282048654006688  
  0.1967213114754097  0.5573770491803280  0.4282048654006688  
  0.0491803278688524  0.6393442622950821  0.4282048654006688  
  0.8524590163934426  0.0819672131147541  0.4282048654006688  
  0.7049180327868850  0.1639344262295082  0.4282048654006688  
  0.5573770491803280  0.2459016393442623  0.4282048654006688  
  0.4098360655737704  0.3278688524590164  0.4282048654006688  
  0.2622950819672130  0.4098360655737706  0.4282048654006688  
  0.1147540983606557  0.4918032786885246  0.4282048654006688  
  0.7704918032786884  0.0163934426229509  0.4282048654006688  
  0.6229508196721311  0.0983606557377050  0.4282048654006688  
  0.4754098360655736  0.1803278688524591  0.4282048654006688  
  0.3278688524590163  0.2622950819672132  0.4282048654006688  
  0.1803278688524590  0.3442622950819673  0.4282048654006688  
  0.0327868852459016  0.4262295081967213  0.4282048654006688  
  0.5409836065573770  0.0327868852459017  0.4282048654006688  
  0.3934426229508197  0.1147540983606558  0.4282048654006688  
  0.2459016393442623  0.1967213114754099  0.4282048654006688  
  0.0983606557377049  0.2786885245901640  0.4282048654006688  
  0.3114754098360655  0.0491803278688525  0.4282048654006688  
  0.1639344262295082  0.1311475409836066  0.4282048654006688  
  0.0163934426229508  0.2131147540983606  0.4282048654006688  
  0.0819672131147541  0.0655737704918033  0.4282048654006688  
  1.0000000000000002  1.0000000000000000  0.3044547236115501  
  0.9180327868852457  0.9344262295081970  0.3044547236115501  
  0.9836065573770491  0.7868852459016396  0.3044547236115501  
  0.8360655737704916  0.8688524590163937  0.3044547236115501  
  0.6885245901639343  0.9508196721311477  0.3044547236115501  
  0.9016393442622950  0.7213114754098362  0.3044547236115501  
  0.7540983606557375  0.8032786885245903  0.3044547236115501  
  0.6065573770491801  0.8852459016393444  0.3044547236115501  
  0.4590163934426228  0.9672131147540985  0.3044547236115501  
  0.9672131147540982  0.5737704918032788  0.3044547236115501  
  0.8196721311475409  0.6557377049180328  0.3044547236115501  
  0.6721311475409836  0.7377049180327870  0.3044547236115501  
  0.5245901639344260  0.8196721311475411  0.3044547236115501  
  0.3770491803278687  0.9016393442622952  0.3044547236115501  
  0.2295081967213114  0.9836065573770493  0.3044547236115501  
  0.8852459016393439  0.5081967213114756  0.3044547236115501  
  0.7377049180327869  0.5901639344262297  0.3044547236115501  
  0.5901639344262294  0.6721311475409837  0.3044547236115501  
  0.4426229508196720  0.7540983606557378  0.3044547236115501  
  0.2950819672131147  0.8360655737704918  0.3044547236115501  
  0.1475409836065572  0.9180327868852459  0.3044547236115501  
  0.9508196721311473  0.3606557377049181  0.3044547236115501  
  0.8032786885245903  0.4426229508196722  0.3044547236115501  
  0.6557377049180326  0.5245901639344265  0.3044547236115501  
  0.5081967213114754  0.6065573770491803  0.3044547236115501  
  0.3606557377049179  0.6885245901639345  0.3044547236115501  
  0.2131147540983606  0.7704918032786885  0.3044547236115501  
  0.0655737704918033  0.8524590163934426  0.3044547236115501  
  0.8688524590163936  0.2950819672131147  0.3044547236115501  
  0.7213114754098360  0.3770491803278689  0.3044547236115501  
  0.5737704918032788  0.4590163934426228  0.3044547236115501  
  0.4262295081967213  0.5409836065573771  0.3044547236115501  
  0.2786885245901640  0.6229508196721312  0.3044547236115501  
  0.1311475409836064  0.7049180327868854  0.3044547236115501  
  0.9344262295081966  0.1475409836065574  0.3044547236115501  
  0.7868852459016393  0.2295081967213116  0.3044547236115501  
  0.6393442622950819  0.3114754098360656  0.3044547236115501  
  0.4918032786885245  0.3934426229508198  0.3044547236115501  
  0.3442622950819672  0.4754098360655739  0.3044547236115501  
  0.1967213114754097  0.5573770491803280  0.3044547236115501  
  0.0491803278688524  0.6393442622950821  0.3044547236115501  
  0.8524590163934426  0.0819672131147541  0.3044547236115501  
  0.7049180327868850  0.1639344262295082  0.3044547236115501  
  0.5573770491803280  0.2459016393442623  0.3044547236115501  
  0.4098360655737704  0.3278688524590164  0.3044547236115501  
  0.2622950819672130  0.4098360655737706  0.3044547236115501  
  0.1147540983606557  0.4918032786885246  0.3044547236115501  
  0.7704918032786884  0.0163934426229509  0.3044547236115501  
  0.6229508196721311  0.0983606557377050  0.3044547236115501  
  0.4754098360655736  0.1803278688524591  0.3044547236115501  
  0.3278688524590163  0.2622950819672132  0.3044547236115501  
  0.1803278688524590  0.3442622950819673  0.3044547236115501  
  0.0327868852459016  0.4262295081967213  0.3044547236115501  
  0.5409836065573770  0.0327868852459017  0.3044547236115501  
  0.3934426229508197  0.1147540983606558  0.3044547236115501  
  0.2459016393442623  0.1967213114754099  0.3044547236115501  
  0.0983606557377049  0.2786885245901640  0.3044547236115501  
  0.3114754098360655  0.0491803278688525  0.3044547236115501  
  0.1639344262295082  0.1311475409836066  0.3044547236115501  
  0.0163934426229508  0.2131147540983606  0.3044547236115501  
  0.0819672131147541  0.0655737704918033  0.3044547236115501  
  0.8579234975081966  0.9890710358852461  0.1837151350000000  
  0.9398907106229509  0.8415300522786885  0.1837151350000000  
  0.7923497270163936  0.9071038227704916  0.1837151350000000  
  0.6448087434098360  0.9726775932622952  0.1837151350000000  
  0.8743169401311476  0.7595628391639342  0.1837151350000000  
  0.7267759565245903  0.8251366096557375  0.1837151350000000  
  0.5792349729180332  0.8907103801475407  0.1837151350000000  
  0.4316939893114755  0.9562841506393441  0.1837151350000000  
  0.9562841532459015  0.6120218555573771  0.1837151350000000  
  0.8087431696393440  0.6775956260491806  0.1837151350000000  
  0.6612021860327869  0.7431693965409837  0.1837151350000000  
  0.5136612024262295  0.8087431670327869  0.1837151350000000  
  0.3661202188196722  0.8743169375245903  0.1837151350000000  
  0.2185792352131146  0.9398907080163937  0.1837151350000000  
  0.8907103827540983  0.5300546424426231  0.1837151350000000  
  0.7431693991475410  0.5956284129344263  0.1837151350000000  
  0.5956284155409836  0.6612021834262295  0.1837151350000000  
  0.4480874319344262  0.7267759539180330  0.1837151350000000  
  0.3005464483278688  0.7923497244098362  0.1837151350000000  
  0.1530054647213114  0.8579234949016395  0.1837151350000000  
  0.0054644811147542  0.9234972653934425  0.1837151350000000  
  0.9726775958688523  0.3825136588360656  0.1837151350000000  
  0.8251366122622951  0.4480874293278688  0.1837151350000000  
  0.6775956286557376  0.5136611998196720  0.1837151350000000  
  0.5300546450491804  0.5792349703114754  0.1837151350000000  
  0.3825136614426230  0.6448087408032787  0.1837151350000000  
  0.2349726778360658  0.7103825112950818  0.1837151350000000  
  0.0874316942295083  0.7759562817868851  0.1837151350000000  
  0.9071038253770493  0.3005464457213114  0.1837151350000000  
  0.7595628417704918  0.3661202162131147  0.1837151350000000  
  0.6120218581639345  0.4316939867049180  0.1837151350000000  
  0.4644808745573771  0.4972677571967213  0.1837151350000000  
  0.3169398909508196  0.5628415276885246  0.1837151350000000  
  0.1693989073442623  0.6284152981803278  0.1837151350000000  
  0.0218579237377049  0.6939890686721312  0.1837151350000000  
  0.9890710384918032  0.1530054621147541  0.1837151350000000  
  0.8415300548852458  0.2185792326065574  0.1837151350000000  
  0.6939890712786886  0.2841530030983607  0.1837151350000000  
  0.5464480876721312  0.3497267735901639  0.1837151350000000  
  0.3989071040655738  0.4153005440819672  0.1837151350000000  
  0.2513661204590163  0.4808743145737705  0.1837151350000000  
  0.1038251368524590  0.5464480850655739  0.1837151350000000  
  0.9234972680000000  0.0710382490000000  0.1837151350000000  
  0.7759562843934427  0.1366120194918033  0.1837151350000000  
  0.6284153007868855  0.2021857899836065  0.1837151350000000  
  0.4808743171803281  0.2677595604754097  0.1837151350000000  
  0.3333333335737705  0.3333333309672131  0.1837151350000000  
  0.1857923499672132  0.3989071014590164  0.1837151350000000  
  0.0382513663606557  0.4644808719508197  0.1837151350000000  
  0.7103825139016393  0.0546448063770492  0.1837151350000000  
  0.5628415302950820  0.1202185768688524  0.1837151350000000  
  0.4153005466885246  0.1857923473606557  0.1837151350000000  
  0.2677595630819672  0.2513661178524590  0.1837151350000000  
  0.1202185794754099  0.3169398883442622  0.1837151350000000  
  0.4972677598032786  0.0382513637540983  0.1837151350000000  
  0.3497267761967214  0.1038251342459016  0.1837151350000000  
  0.2021857925901639  0.1693989047377049  0.1837151350000000  
  0.0546448089836066  0.2349726752295082  0.1837151350000000  
  0.2841530057049180  0.0218579211311476  0.1837151350000000  
  0.1366120220983607  0.0874316916229508  0.1837151350000000  
  0.0710382516065574  0.0054644785081967  0.1837151350000000  
  0.8579234975081966  0.9890710358852461  0.0599649880000000  
  0.9398907106229509  0.8415300522786885  0.0599649880000000  
  0.7923497270163936  0.9071038227704916  0.0599649880000000  
  0.6448087434098360  0.9726775932622952  0.0599649880000000  
  0.8743169401311476  0.7595628391639342  0.0599649880000000  
  0.7267759565245903  0.8251366096557375  0.0599649880000000  
  0.5792349729180332  0.8907103801475407  0.0599649880000000  
  0.4316939893114755  0.9562841506393441  0.0599649880000000  
  0.9562841532459015  0.6120218555573771  0.0599649880000000  
  0.8087431696393440  0.6775956260491806  0.0599649880000000  
  0.6612021860327869  0.7431693965409837  0.0599649880000000  
  0.5136612024262295  0.8087431670327869  0.0599649880000000  
  0.3661202188196722  0.8743169375245903  0.0599649880000000  
  0.2185792352131146  0.9398907080163937  0.0599649880000000  
  0.8907103827540983  0.5300546424426231  0.0599649880000000  
  0.7431693991475410  0.5956284129344263  0.0599649880000000  
  0.5956284155409836  0.6612021834262295  0.0599649880000000  
  0.4480874319344262  0.7267759539180330  0.0599649880000000  
  0.3005464483278688  0.7923497244098362  0.0599649880000000  
  0.1530054647213114  0.8579234949016395  0.0599649880000000  
  0.0054644811147542  0.9234972653934425  0.0599649880000000  
  0.9726775958688523  0.3825136588360656  0.0599649880000000  
  0.8251366122622951  0.4480874293278688  0.0599649880000000  
  0.6775956286557376  0.5136611998196720  0.0599649880000000  
  0.5300546450491804  0.5792349703114754  0.0599649880000000  
  0.3825136614426230  0.6448087408032787  0.0599649880000000  
  0.2349726778360658  0.7103825112950818  0.0599649880000000  
  0.0874316942295083  0.7759562817868851  0.0599649880000000  
  0.9071038253770493  0.3005464457213114  0.0599649880000000  
  0.7595628417704918  0.3661202162131147  0.0599649880000000  
  0.6120218581639345  0.4316939867049180  0.0599649880000000  
  0.4644808745573771  0.4972677571967213  0.0599649880000000  
  0.3169398909508196  0.5628415276885246  0.0599649880000000  
  0.1693989073442623  0.6284152981803278  0.0599649880000000  
  0.0218579237377049  0.6939890686721312  0.0599649880000000  
  0.9890710384918032  0.1530054621147541  0.0599649880000000  
  0.8415300548852458  0.2185792326065574  0.0599649880000000  
  0.6939890712786886  0.2841530030983607  0.0599649880000000  
  0.5464480876721312  0.3497267735901639  0.0599649880000000  
  0.3989071040655738  0.4153005440819672  0.0599649880000000  
  0.2513661204590163  0.4808743145737705  0.0599649880000000  
  0.1038251368524590  0.5464480850655739  0.0599649880000000  
  0.9234972680000000  0.0710382490000000  0.0599649880000000  
  0.7759562843934427  0.1366120194918033  0.0599649880000000  
  0.6284153007868855  0.2021857899836065  0.0599649880000000  
  0.4808743171803281  0.2677595604754097  0.0599649880000000  
  0.3333333335737705  0.3333333309672131  0.0599649880000000  
  0.1857923499672132  0.3989071014590164  0.0599649880000000  
  0.0382513663606557  0.4644808719508197  0.0599649880000000  
  0.7103825139016393  0.0546448063770492  0.0599649880000000  
  0.5628415302950820  0.1202185768688524  0.0599649880000000  
  0.4153005466885246  0.1857923473606557  0.0599649880000000  
  0.2677595630819672  0.2513661178524590  0.0599649880000000  
  0.1202185794754099  0.3169398883442622  0.0599649880000000  
  0.4972677598032786  0.0382513637540983  0.0599649880000000  
  0.3497267761967214  0.1038251342459016  0.0599649880000000  
  0.2021857925901639  0.1693989047377049  0.0599649880000000  
  0.0546448089836066  0.2349726752295082  0.0599649880000000  
  0.2841530057049180  0.0218579211311476  0.0599649880000000  
  0.1366120220983607  0.0874316916229508  0.0599649880000000  
  0.0710382516065574  0.0054644785081967  0.0599649880000000  
