Generated by CELLSTINE surface stage | Miller (1 1 1) | Made by Sarwin Chandran
1.0
    -4.1325000000000003    4.1325000000000003    0.0000000000000000
     0.0000000000000000   -6.1987500000000004    6.1987500000000004
    13.3701043070340120   13.3701043070340120   13.3701043070340120
  Au
  24
Direct
   1.0000000000000000  1.0000000000000000  0.0215910906875230
   1.0000000000000000  0.3333333333333333  0.0215910906875230
   0.9999999999999998  0.6666666666666666  0.0215910906875229
   0.5000000000000000  1.0000000000000000  0.0215910906875230
   0.5000000000000000  0.3333333333333333  0.0215910906875230
   0.4999999999999999  0.6666666666666665  0.0215910906875229
   0.3333333333333339  0.1111111111111118  0.1246194566872779
   0.3333333333333338  0.4444444444444451  0.1246194566872779
   0.3333333333333337  0.7777777777777785  0.1246194566872779
   0.8333333333333339  0.1111111111111118  0.1246194566872779
   0.8333333333333339  0.4444444444444451  0.1246194566872779
   0.8333333333333337  0.7777777777777785  0.1246194566872779
   0.1666666666666659  0.2222222222222225  0.2276478226870329
   0.1666666666666658  0.5555555555555558  0.2276478226870328
   0.1666666666666659  0.8888888888888891  0.2276478226870328
   0.6666666666666661  0.2222222222222224  0.2276478226870328
   0.6666666666666659  0.5555555555555558  0.2276478226870328
   0.6666666666666659  0.8888888888888891  0.2276478226870328
   1.0000000000000000  1.0000000000000000  0.3306761886867878
   0.9999999999999999  0.3333333333333333  0.3306761886867877
   0.9999999999999998  0.6666666666666665  0.3306761886867877
   0.5000000000000000  0.9999999999999999  0.3306761886867878
   0.4999999999999998  0.3333333333333333  0.3306761886867877
   0.4999999999999998  0.6666666666666664  0.3306761886867877
