Generated by CELLSTINE make stage | Made by Sarwin Chandran
1.0
    -1.5803891351999999   -2.7373138728000002   -0.0000000000000000
     1.5803893872999999   -2.7373138728000002    0.0000000000000000
     0.0000000000000000    0.0000000000000000   25.3589382171999986
  Mo  S
  2  4
Direct
   0.3333333135324937  0.3333333431243601  0.3063952509545530
   0.0000000000000000  0.0000000000000000  0.0619145023167835
   0.0000000000000000  0.0000000000000000  0.3682703242545760
   0.0000000000000000  0.0000000000000000  0.2445201824654572
   0.3333333333333334  0.3333333333333333  0.1237895756168064
   0.3333333333333334  0.3333333333333333  0.0000394338276877
